20755
Lattice="300.00000000 0 0 0 300.00000000 0 0 0 300.00000000" Properties=species:S:1:pos:R:3 pbc="T T T"
Ni 121.74300000 140.58000000 146.85900000
Ni 121.74300000 142.67400000 144.76800000
O 121.74300000 142.67400000 146.85900000
Ni 121.74300000 140.58000000 151.04700000
Ni 121.74300000 142.67400000 148.95300000
O 121.74300000 140.58000000 148.95300000
O 121.74300000 142.67400000 151.04700000
Ni 121.74300000 142.67400000 153.14100000
O 121.74300000 140.58000000 153.14100000
O 121.74300000 142.67400000 155.23200000
Ni 121.74300000 144.76800000 142.67400000
Ni 121.74300000 146.85900000 140.58000000
O 121.74300000 146.85900000 142.67400000
Ni 121.74300000 144.76800000 146.85900000
Ni 121.74300000 146.85900000 144.76800000
O 121.74300000 144.76800000 144.76800000
O 121.74300000 146.85900000 146.85900000
Ni 121.74300000 144.76800000 151.04700000
Ni 121.74300000 146.85900000 148.95300000
O 121.74300000 144.76800000 148.95300000
O 121.74300000 146.85900000 151.04700000
Ni 121.74300000 144.76800000 155.23200000
Ni 121.74300000 146.85900000 153.14100000
O 121.74300000 144.76800000 153.14100000
O 121.74300000 146.85900000 155.23200000
Ni 121.74300000 146.85900000 157.32600000
O 121.74300000 144.76800000 157.32600000
O 121.74300000 146.85900000 159.42000000
Ni 121.74300000 148.95300000 142.67400000
Ni 121.74300000 151.04700000 140.58000000
O 121.74300000 148.95300000 140.58000000
O 121.74300000 151.04700000 142.67400000
Ni 121.74300000 148.95300000 146.85900000
Ni 121.74300000 151.04700000 144.76800000
O 121.74300000 148.95300000 144.76800000
O 121.74300000 151.04700000 146.85900000
Ni 121.74300000 148.95300000 151.04700000
Ni 121.74300000 151.04700000 148.95300000
O 121.74300000 148.95300000 148.95300000
O 121.74300000 151.04700000 151.04700000
Ni 121.74300000 148.95300000 155.23200000
Ni 121.74300000 151.04700000 153.14100000
O 121.74300000 148.95300000 153.14100000
O 121.74300000 151.04700000 155.23200000
Ni 121.74300000 148.95300000 159.42000000
Ni 121.74300000 151.04700000 157.32600000
O 121.74300000 148.95300000 157.32600000
O 121.74300000 151.04700000 159.42000000
Ni 121.74300000 153.14100000 142.67400000
O 121.74300000 153.14100000 140.58000000
O 121.74300000 155.23200000 142.67400000
Ni 121.74300000 153.14100000 146.85900000
Ni 121.74300000 155.23200000 144.76800000
O 121.74300000 153.14100000 144.76800000
O 121.74300000 155.23200000 146.85900000
Ni 121.74300000 153.14100000 151.04700000
Ni 121.74300000 155.23200000 148.95300000
O 121.74300000 153.14100000 148.95300000
O 121.74300000 155.23200000 151.04700000
Ni 121.74300000 153.14100000 155.23200000
Ni 121.74300000 155.23200000 153.14100000
O 121.74300000 153.14100000 153.14100000
O 121.74300000 155.23200000 155.23200000
Ni 121.74300000 153.14100000 159.42000000
Ni 121.74300000 155.23200000 157.32600000
O 121.74300000 153.14100000 157.32600000
Ni 121.74300000 157.32600000 146.85900000
O 121.74300000 157.32600000 144.76800000
O 121.74300000 159.42000000 146.85900000
Ni 121.74300000 157.32600000 151.04700000
Ni 121.74300000 159.42000000 148.95300000
O 121.74300000 157.32600000 148.95300000
O 121.74300000 159.42000000 151.04700000
Ni 121.74300000 157.32600000 155.23200000
Ni 121.74300000 159.42000000 153.14100000
O 121.74300000 157.32600000 153.14100000
O 125.92800000 134.30100000 142.67400000
Ni 125.92800000 134.30100000 144.76800000
O 125.92800000 134.30100000 146.85900000
Ni 125.92800000 132.20700000 151.04700000
Ni 125.92800000 134.30100000 148.95300000
O 125.92800000 132.20700000 148.95300000
O 125.92800000 134.30100000 151.04700000
Ni 125.92800000 134.30100000 153.14100000
O 125.92800000 134.30100000 155.23200000
Ni 125.92800000 134.30100000 157.32600000
Ni 125.92800000 136.39500000 138.48900000
Ni 125.92800000 138.48900000 136.39500000
O 125.92800000 138.48900000 138.48900000
Ni 123.83700000 138.48900000 142.67400000
Ni 125.92800000 136.39500000 142.67400000
Ni 125.92800000 138.48900000 140.58000000
O 125.92800000 136.39500000 140.58000000
O 125.92800000 138.48900000 142.67400000
Ni 123.83700000 136.39500000 144.76800000
Ni 123.83700000 138.48900000 146.85900000
Ni 125.92800000 136.39500000 146.85900000
Ni 125.92800000 138.48900000 144.76800000
O 125.92800000 136.39500000 144.76800000
O 125.92800000 138.48900000 146.85900000
O 123.83700000 136.39500000 146.85900000
O 123.83700000 138.48900000 144.76800000
Ni 123.83700000 136.39500000 148.95300000
Ni 123.83700000 138.48900000 151.04700000
Ni 125.92800000 136.39500000 151.04700000
Ni 125.92800000 138.48900000 148.95300000
O 125.92800000 136.39500000 148.95300000
O 125.92800000 138.48900000 151.04700000
O 123.83700000 136.39500000 151.04700000
O 123.83700000 138.48900000 148.95300000
Ni 123.83700000 136.39500000 153.14100000
Ni 123.83700000 138.48900000 155.23200000
Ni 125.92800000 136.39500000 155.23200000
Ni 125.92800000 138.48900000 153.14100000
O 125.92800000 136.39500000 153.14100000
O 125.92800000 138.48900000 155.23200000
O 123.83700000 136.39500000 155.23200000
O 123.83700000 138.48900000 153.14100000
Ni 125.92800000 136.39500000 159.42000000
Ni 125.92800000 138.48900000 157.32600000
O 125.92800000 136.39500000 157.32600000
O 125.92800000 138.48900000 159.42000000
O 123.83700000 138.48900000 157.32600000
Ni 125.92800000 138.48900000 161.51100000
O 125.92800000 136.39500000 161.51100000
O 125.92800000 138.48900000 163.60500000
O 125.92800000 142.67400000 134.30100000
Ni 123.83700000 142.67400000 138.48900000
Ni 125.92800000 140.58000000 138.48900000
Ni 125.92800000 142.67400000 136.39500000
O 125.92800000 140.58000000 136.39500000
O 125.92800000 142.67400000 138.48900000
Ni 123.83700000 140.58000000 140.58000000
Ni 123.83700000 142.67400000 142.67400000
Ni 125.92800000 140.58000000 142.67400000
Ni 125.92800000 142.67400000 140.58000000
O 125.92800000 140.58000000 140.58000000
O 125.92800000 142.67400000 142.67400000
O 123.83700000 140.58000000 142.67400000
O 123.83700000 142.67400000 140.58000000
Ni 123.83700000 140.58000000 144.76800000
Ni 123.83700000 142.67400000 146.85900000
Ni 125.92800000 140.58000000 146.85900000
Ni 125.92800000 142.67400000 144.76800000
O 125.92800000 140.58000000 144.76800000
O 125.92800000 142.67400000 146.85900000
O 123.83700000 140.58000000 146.85900000
O 123.83700000 142.67400000 144.76800000
Ni 123.83700000 140.58000000 148.95300000
Ni 123.83700000 142.67400000 151.04700000
Ni 125.92800000 140.58000000 151.04700000
Ni 125.92800000 142.67400000 148.95300000
O 125.92800000 140.58000000 148.95300000
O 125.92800000 142.67400000 151.04700000
O 123.83700000 140.58000000 151.04700000
O 123.83700000 142.67400000 148.95300000
Ni 123.83700000 140.58000000 153.14100000
Ni 123.83700000 142.67400000 155.23200000
Ni 125.92800000 140.58000000 155.23200000
Ni 125.92800000 142.67400000 153.14100000
O 125.92800000 140.58000000 153.14100000
O 125.92800000 142.67400000 155.23200000
O 123.83700000 140.58000000 155.23200000
O 123.83700000 142.67400000 153.14100000
Ni 123.83700000 140.58000000 157.32600000
Ni 123.83700000 142.67400000 159.42000000
Ni 125.92800000 140.58000000 159.42000000
Ni 125.92800000 142.67400000 157.32600000
O 125.92800000 140.58000000 157.32600000
O 125.92800000 142.67400000 159.42000000
O 123.83700000 140.58000000 159.42000000
O 123.83700000 142.67400000 157.32600000
Ni 125.92800000 140.58000000 163.60500000
Ni 125.92800000 142.67400000 161.51100000
O 125.92800000 140.58000000 161.51100000
O 125.92800000 142.67400000 163.60500000
O 123.83700000 142.67400000 161.51100000
Ni 125.92800000 142.67400000 165.69900000
Ni 125.92800000 144.76800000 134.30100000
O 125.92800000 146.85900000 134.30100000
Ni 123.83700000 144.76800000 136.39500000
Ni 123.83700000 146.85900000 138.48900000
Ni 125.92800000 144.76800000 138.48900000
Ni 125.92800000 146.85900000 136.39500000
O 125.92800000 144.76800000 136.39500000
O 125.92800000 146.85900000 138.48900000
O 123.83700000 144.76800000 138.48900000
O 123.83700000 146.85900000 136.39500000
Ni 123.83700000 144.76800000 140.58000000
Ni 123.83700000 146.85900000 142.67400000
Ni 125.92800000 144.76800000 142.67400000
Ni 125.92800000 146.85900000 140.58000000
O 125.92800000 144.76800000 140.58000000
O 125.92800000 146.85900000 142.67400000
O 123.83700000 144.76800000 142.67400000
O 123.83700000 146.85900000 140.58000000
Ni 123.83700000 144.76800000 144.76800000
Ni 123.83700000 146.85900000 146.85900000
Ni 125.92800000 144.76800000 146.85900000
Ni 125.92800000 146.85900000 144.76800000
O 125.92800000 144.76800000 144.76800000
O 125.92800000 146.85900000 146.85900000
O 123.83700000 144.76800000 146.85900000
O 123.83700000 146.85900000 144.76800000
Ni 123.83700000 144.76800000 148.95300000
Ni 123.83700000 146.85900000 151.04700000
Ni 125.92800000 144.76800000 151.04700000
Ni 125.92800000 146.85900000 148.95300000
O 125.92800000 144.76800000 148.95300000
O 125.92800000 146.85900000 151.04700000
O 123.83700000 144.76800000 151.04700000
O 123.83700000 146.85900000 148.95300000
Ni 123.83700000 144.76800000 153.14100000
Ni 123.83700000 146.85900000 155.23200000
Ni 125.92800000 144.76800000 155.23200000
Ni 125.92800000 146.85900000 153.14100000
O 125.92800000 144.76800000 153.14100000
O 125.92800000 146.85900000 155.23200000
O 123.83700000 144.76800000 155.23200000
O 123.83700000 146.85900000 153.14100000
Ni 123.83700000 144.76800000 157.32600000
Ni 123.83700000 146.85900000 159.42000000
Ni 125.92800000 144.76800000 159.42000000
Ni 125.92800000 146.85900000 157.32600000
O 125.92800000 144.76800000 157.32600000
O 125.92800000 146.85900000 159.42000000
O 123.83700000 144.76800000 159.42000000
O 123.83700000 146.85900000 157.32600000
Ni 123.83700000 144.76800000 161.51100000
Ni 123.83700000 146.85900000 163.60500000
Ni 125.92800000 144.76800000 163.60500000
Ni 125.92800000 146.85900000 161.51100000
O 125.92800000 144.76800000 161.51100000
O 125.92800000 146.85900000 163.60500000
O 123.83700000 144.76800000 163.60500000
O 123.83700000 146.85900000 161.51100000
Ni 125.92800000 146.85900000 165.69900000
O 125.92800000 144.76800000 165.69900000
Ni 125.92800000 148.95300000 134.30100000
Ni 125.92800000 151.04700000 132.20700000
O 125.92800000 148.95300000 132.20700000
O 125.92800000 151.04700000 134.30100000
Ni 123.83700000 148.95300000 136.39500000
Ni 123.83700000 151.04700000 138.48900000
Ni 125.92800000 148.95300000 138.48900000
Ni 125.92800000 151.04700000 136.39500000
O 125.92800000 148.95300000 136.39500000
O 125.92800000 151.04700000 138.48900000
O 123.83700000 148.95300000 138.48900000
O 123.83700000 151.04700000 136.39500000
Ni 123.83700000 148.95300000 140.58000000
Ni 123.83700000 151.04700000 142.67400000
Ni 125.92800000 148.95300000 142.67400000
Ni 125.92800000 151.04700000 140.58000000
O 125.92800000 148.95300000 140.58000000
O 125.92800000 151.04700000 142.67400000
O 123.83700000 148.95300000 142.67400000
O 123.83700000 151.04700000 140.58000000
Ni 123.83700000 148.95300000 144.76800000
Ni 123.83700000 151.04700000 146.85900000
Ni 125.92800000 148.95300000 146.85900000
Ni 125.92800000 151.04700000 144.76800000
O 125.92800000 148.95300000 144.76800000
O 125.92800000 151.04700000 146.85900000
O 123.83700000 148.95300000 146.85900000
O 123.83700000 151.04700000 144.76800000
Ni 123.83700000 148.95300000 148.95300000
Ni 123.83700000 151.04700000 151.04700000
Ni 125.92800000 148.95300000 151.04700000
Ni 125.92800000 151.04700000 148.95300000
O 125.92800000 148.95300000 148.95300000
O 125.92800000 151.04700000 151.04700000
O 123.83700000 148.95300000 151.04700000
O 123.83700000 151.04700000 148.95300000
Ni 123.83700000 148.95300000 153.14100000
Ni 123.83700000 151.04700000 155.23200000
Ni 125.92800000 148.95300000 155.23200000
Ni 125.92800000 151.04700000 153.14100000
O 125.92800000 148.95300000 153.14100000
O 125.92800000 151.04700000 155.23200000
O 123.83700000 148.95300000 155.23200000
O 123.83700000 151.04700000 153.14100000
Ni 123.83700000 148.95300000 157.32600000
Ni 123.83700000 151.04700000 159.42000000
Ni 125.92800000 148.95300000 159.42000000
Ni 125.92800000 151.04700000 157.32600000
O 125.92800000 148.95300000 157.32600000
O 125.92800000 151.04700000 159.42000000
O 123.83700000 148.95300000 159.42000000
O 123.83700000 151.04700000 157.32600000
Ni 123.83700000 148.95300000 161.51100000
Ni 123.83700000 151.04700000 163.60500000
Ni 125.92800000 148.95300000 163.60500000
Ni 125.92800000 151.04700000 161.51100000
O 125.92800000 148.95300000 161.51100000
O 125.92800000 151.04700000 163.60500000
O 123.83700000 148.95300000 163.60500000
O 123.83700000 151.04700000 161.51100000
Ni 125.92800000 148.95300000 167.79300000
Ni 125.92800000 151.04700000 165.69900000
O 125.92800000 148.95300000 165.69900000
O 125.92800000 151.04700000 167.79300000
Ni 125.92800000 153.14100000 134.30100000
O 125.92800000 155.23200000 134.30100000
Ni 123.83700000 153.14100000 136.39500000
Ni 123.83700000 155.23200000 138.48900000
Ni 125.92800000 153.14100000 138.48900000
Ni 125.92800000 155.23200000 136.39500000
O 125.92800000 153.14100000 136.39500000
O 125.92800000 155.23200000 138.48900000
O 123.83700000 153.14100000 138.48900000
O 123.83700000 155.23200000 136.39500000
Ni 123.83700000 153.14100000 140.58000000
Ni 123.83700000 155.23200000 142.67400000
Ni 125.92800000 153.14100000 142.67400000
Ni 125.92800000 155.23200000 140.58000000
O 125.92800000 153.14100000 140.58000000
O 125.92800000 155.23200000 142.67400000
O 123.83700000 153.14100000 142.67400000
O 123.83700000 155.23200000 140.58000000
Ni 123.83700000 153.14100000 144.76800000
Ni 123.83700000 155.23200000 146.85900000
Ni 125.92800000 153.14100000 146.85900000
Ni 125.92800000 155.23200000 144.76800000
O 125.92800000 153.14100000 144.76800000
O 125.92800000 155.23200000 146.85900000
O 123.83700000 153.14100000 146.85900000
O 123.83700000 155.23200000 144.76800000
Ni 123.83700000 153.14100000 148.95300000
Ni 123.83700000 155.23200000 151.04700000
Ni 125.92800000 153.14100000 151.04700000
Ni 125.92800000 155.23200000 148.95300000
O 125.92800000 153.14100000 148.95300000
O 125.92800000 155.23200000 151.04700000
O 123.83700000 153.14100000 151.04700000
O 123.83700000 155.23200000 148.95300000
Ni 123.83700000 153.14100000 153.14100000
Ni 123.83700000 155.23200000 155.23200000
Ni 125.92800000 153.14100000 155.23200000
Ni 125.92800000 155.23200000 153.14100000
O 125.92800000 153.14100000 153.14100000
O 125.92800000 155.23200000 155.23200000
O 123.83700000 153.14100000 155.23200000
O 123.83700000 155.23200000 153.14100000
Ni 123.83700000 153.14100000 157.32600000
Ni 123.83700000 155.23200000 159.42000000
Ni 125.92800000 153.14100000 159.42000000
Ni 125.92800000 155.23200000 157.32600000
O 125.92800000 153.14100000 157.32600000
O 125.92800000 155.23200000 159.42000000
O 123.83700000 153.14100000 159.42000000
O 123.83700000 155.23200000 157.32600000
Ni 123.83700000 153.14100000 161.51100000
Ni 123.83700000 155.23200000 163.60500000
Ni 125.92800000 153.14100000 163.60500000
Ni 125.92800000 155.23200000 161.51100000
O 125.92800000 153.14100000 161.51100000
O 125.92800000 155.23200000 163.60500000
O 123.83700000 153.14100000 163.60500000
O 123.83700000 155.23200000 161.51100000
Ni 125.92800000 155.23200000 165.69900000
O 125.92800000 153.14100000 165.69900000
Ni 125.92800000 157.32600000 134.30100000
Ni 125.92800000 157.32600000 138.48900000
Ni 125.92800000 159.42000000 136.39500000
O 125.92800000 157.32600000 136.39500000
O 125.92800000 159.42000000 138.48900000
O 123.83700000 157.32600000 138.48900000
Ni 123.83700000 157.32600000 140.58000000
Ni 123.83700000 159.42000000 142.67400000
Ni 125.92800000 157.32600000 142.67400000
Ni 125.92800000 159.42000000 140.58000000
O 125.92800000 157.32600000 140.58000000
O 125.92800000 159.42000000 142.67400000
O 123.83700000 157.32600000 142.67400000
O 123.83700000 159.42000000 140.58000000
Ni 123.83700000 157.32600000 144.76800000
Ni 123.83700000 159.42000000 146.85900000
Ni 125.92800000 157.32600000 146.85900000
Ni 125.92800000 159.42000000 144.76800000
O 125.92800000 157.32600000 144.76800000
O 125.92800000 159.42000000 146.85900000
O 123.83700000 157.32600000 146.85900000
O 123.83700000 159.42000000 144.76800000
Ni 123.83700000 157.32600000 148.95300000
Ni 123.83700000 159.42000000 151.04700000
Ni 125.92800000 157.32600000 151.04700000
Ni 125.92800000 159.42000000 148.95300000
O 125.92800000 157.32600000 148.95300000
O 125.92800000 159.42000000 151.04700000
O 123.83700000 157.32600000 151.04700000
O 123.83700000 159.42000000 148.95300000
Ni 123.83700000 157.32600000 153.14100000
Ni 123.83700000 159.42000000 155.23200000
Ni 125.92800000 157.32600000 155.23200000
Ni 125.92800000 159.42000000 153.14100000
O 125.92800000 157.32600000 153.14100000
O 125.92800000 159.42000000 155.23200000
O 123.83700000 157.32600000 155.23200000
O 123.83700000 159.42000000 153.14100000
Ni 123.83700000 157.32600000 157.32600000
Ni 123.83700000 159.42000000 159.42000000
Ni 125.92800000 157.32600000 159.42000000
Ni 125.92800000 159.42000000 157.32600000
O 125.92800000 157.32600000 157.32600000
O 125.92800000 159.42000000 159.42000000
O 123.83700000 157.32600000 159.42000000
O 123.83700000 159.42000000 157.32600000
Ni 123.83700000 157.32600000 161.51100000
Ni 125.92800000 157.32600000 163.60500000
Ni 125.92800000 159.42000000 161.51100000
O 125.92800000 157.32600000 161.51100000
O 125.92800000 159.42000000 163.60500000
O 125.92800000 157.32600000 165.69900000
Ni 125.92800000 161.51100000 138.48900000
O 125.92800000 161.51100000 136.39500000
O 125.92800000 163.60500000 138.48900000
Ni 125.92800000 161.51100000 142.67400000
Ni 125.92800000 163.60500000 140.58000000
O 125.92800000 161.51100000 140.58000000
O 125.92800000 163.60500000 142.67400000
O 123.83700000 161.51100000 142.67400000
Ni 123.83700000 161.51100000 144.76800000
Ni 123.83700000 163.60500000 146.85900000
Ni 125.92800000 161.51100000 146.85900000
Ni 125.92800000 163.60500000 144.76800000
O 125.92800000 161.51100000 144.76800000
O 125.92800000 163.60500000 146.85900000
O 123.83700000 161.51100000 146.85900000
O 123.83700000 163.60500000 144.76800000
Ni 123.83700000 161.51100000 148.95300000
Ni 123.83700000 163.60500000 151.04700000
Ni 125.92800000 161.51100000 151.04700000
Ni 125.92800000 163.60500000 148.95300000
O 125.92800000 161.51100000 148.95300000
O 125.92800000 163.60500000 151.04700000
O 123.83700000 161.51100000 151.04700000
O 123.83700000 163.60500000 148.95300000
Ni 123.83700000 161.51100000 153.14100000
Ni 123.83700000 163.60500000 155.23200000
Ni 125.92800000 161.51100000 155.23200000
Ni 125.92800000 163.60500000 153.14100000
O 125.92800000 161.51100000 153.14100000
O 125.92800000 163.60500000 155.23200000
O 123.83700000 161.51100000 155.23200000
O 123.83700000 163.60500000 153.14100000
Ni 123.83700000 161.51100000 157.32600000
Ni 125.92800000 161.51100000 159.42000000
Ni 125.92800000 163.60500000 157.32600000
O 125.92800000 161.51100000 157.32600000
O 125.92800000 163.60500000 159.42000000
Ni 125.92800000 161.51100000 163.60500000
Ni 125.92800000 163.60500000 161.51100000
O 125.92800000 161.51100000 161.51100000
Ni 125.92800000 165.69900000 142.67400000
Ni 125.92800000 165.69900000 146.85900000
O 125.92800000 165.69900000 144.76800000
Ni 125.92800000 165.69900000 151.04700000
Ni 125.92800000 167.79300000 148.95300000
O 125.92800000 165.69900000 148.95300000
O 125.92800000 167.79300000 151.04700000
Ni 125.92800000 165.69900000 155.23200000
O 125.92800000 165.69900000 153.14100000
O 125.92800000 165.69900000 157.32600000
Ni 130.11600000 130.11600000 140.58000000
O 130.11600000 130.11600000 142.67400000
Ni 128.02200000 130.11600000 146.85900000
Ni 130.11600000 128.02200000 146.85900000
Ni 130.11600000 130.11600000 144.76800000
O 130.11600000 130.11600000 146.85900000
Ni 128.02200000 130.11600000 151.04700000
Ni 130.11600000 128.02200000 151.04700000
Ni 130.11600000 130.11600000 148.95300000
O 130.11600000 128.02200000 148.95300000
O 130.11600000 130.11600000 151.04700000
O 128.02200000 130.11600000 148.95300000
Ni 130.11600000 130.11600000 153.14100000
O 130.11600000 128.02200000 153.14100000
O 130.11600000 130.11600000 155.23200000
O 128.02200000 130.11600000 153.14100000
Ni 130.11600000 130.11600000 157.32600000
O 130.11600000 130.11600000 159.42000000
O 130.11600000 134.30100000 134.30100000
Ni 128.02200000 134.30100000 138.48900000
Ni 130.11600000 132.20700000 138.48900000
Ni 130.11600000 134.30100000 136.39500000
O 130.11600000 132.20700000 136.39500000
O 130.11600000 134.30100000 138.48900000
Ni 128.02200000 132.20700000 140.58000000
Ni 128.02200000 134.30100000 142.67400000
Ni 130.11600000 132.20700000 142.67400000
Ni 130.11600000 134.30100000 140.58000000
O 130.11600000 132.20700000 140.58000000
O 130.11600000 134.30100000 142.67400000
O 128.02200000 132.20700000 142.67400000
O 128.02200000 134.30100000 140.58000000
Ni 128.02200000 132.20700000 144.76800000
Ni 128.02200000 134.30100000 146.85900000
Ni 130.11600000 132.20700000 146.85900000
Ni 130.11600000 134.30100000 144.76800000
O 130.11600000 132.20700000 144.76800000
O 130.11600000 134.30100000 146.85900000
O 128.02200000 132.20700000 146.85900000
O 128.02200000 134.30100000 144.76800000
Ni 128.02200000 132.20700000 148.95300000
Ni 128.02200000 134.30100000 151.04700000
Ni 130.11600000 132.20700000 151.04700000
Ni 130.11600000 134.30100000 148.95300000
O 130.11600000 132.20700000 148.95300000
O 130.11600000 134.30100000 151.04700000
O 128.02200000 132.20700000 151.04700000
O 128.02200000 134.30100000 148.95300000
Ni 128.02200000 132.20700000 153.14100000
Ni 128.02200000 134.30100000 155.23200000
Ni 130.11600000 132.20700000 155.23200000
Ni 130.11600000 134.30100000 153.14100000
O 130.11600000 132.20700000 153.14100000
O 130.11600000 134.30100000 155.23200000
O 128.02200000 132.20700000 155.23200000
O 128.02200000 134.30100000 153.14100000
Ni 128.02200000 132.20700000 157.32600000
Ni 128.02200000 134.30100000 159.42000000
Ni 130.11600000 132.20700000 159.42000000
Ni 130.11600000 134.30100000 157.32600000
O 130.11600000 132.20700000 157.32600000
O 130.11600000 134.30100000 159.42000000
O 128.02200000 132.20700000 159.42000000
O 128.02200000 134.30100000 157.32600000
Ni 130.11600000 132.20700000 163.60500000
Ni 130.11600000 134.30100000 161.51100000
O 130.11600000 132.20700000 161.51100000
O 130.11600000 134.30100000 163.60500000
O 128.02200000 134.30100000 161.51100000
Ni 130.11600000 134.30100000 165.69900000
Ni 128.02200000 138.48900000 134.30100000
Ni 130.11600000 136.39500000 134.30100000
Ni 130.11600000 138.48900000 132.20700000
O 130.11600000 136.39500000 132.20700000
O 130.11600000 138.48900000 134.30100000
Ni 128.02200000 136.39500000 136.39500000
Ni 128.02200000 138.48900000 138.48900000
Ni 130.11600000 136.39500000 138.48900000
Ni 130.11600000 138.48900000 136.39500000
O 130.11600000 136.39500000 136.39500000
O 130.11600000 138.48900000 138.48900000
O 128.02200000 136.39500000 138.48900000
O 128.02200000 138.48900000 136.39500000
Ni 128.02200000 136.39500000 140.58000000
Ni 128.02200000 138.48900000 142.67400000
Ni 130.11600000 136.39500000 142.67400000
Ni 130.11600000 138.48900000 140.58000000
O 130.11600000 136.39500000 140.58000000
O 130.11600000 138.48900000 142.67400000
O 128.02200000 136.39500000 142.67400000
O 128.02200000 138.48900000 140.58000000
Ni 128.02200000 136.39500000 144.76800000
Ni 128.02200000 138.48900000 146.85900000
Ni 130.11600000 136.39500000 146.85900000
Ni 130.11600000 138.48900000 144.76800000
O 130.11600000 136.39500000 144.76800000
O 130.11600000 138.48900000 146.85900000
O 128.02200000 136.39500000 146.85900000
O 128.02200000 138.48900000 144.76800000
Ni 128.02200000 136.39500000 148.95300000
Ni 128.02200000 138.48900000 151.04700000
Ni 130.11600000 136.39500000 151.04700000
Ni 130.11600000 138.48900000 148.95300000
O 130.11600000 136.39500000 148.95300000
O 130.11600000 138.48900000 151.04700000
O 128.02200000 136.39500000 151.04700000
O 128.02200000 138.48900000 148.95300000
Ni 128.02200000 136.39500000 153.14100000
Ni 128.02200000 138.48900000 155.23200000
Ni 130.11600000 136.39500000 155.23200000
Ni 130.11600000 138.48900000 153.14100000
O 130.11600000 136.39500000 153.14100000
O 130.11600000 138.48900000 155.23200000
O 128.02200000 136.39500000 155.23200000
O 128.02200000 138.48900000 153.14100000
Ni 128.02200000 136.39500000 157.32600000
Ni 128.02200000 138.48900000 159.42000000
Ni 130.11600000 136.39500000 159.42000000
Ni 130.11600000 138.48900000 157.32600000
O 130.11600000 136.39500000 157.32600000
O 130.11600000 138.48900000 159.42000000
O 128.02200000 136.39500000 159.42000000
O 128.02200000 138.48900000 157.32600000
Ni 128.02200000 136.39500000 161.51100000
Ni 128.02200000 138.48900000 163.60500000
Ni 130.11600000 136.39500000 163.60500000
Ni 130.11600000 138.48900000 161.51100000
O 130.11600000 136.39500000 161.51100000
O 130.11600000 138.48900000 163.60500000
O 128.02200000 136.39500000 163.60500000
O 128.02200000 138.48900000 161.51100000
Ni 130.11600000 136.39500000 167.79300000
Ni 130.11600000 138.48900000 165.69900000
O 130.11600000 136.39500000 165.69900000
O 130.11600000 138.48900000 167.79300000
O 128.02200000 138.48900000 165.69900000
Ni 130.11600000 140.58000000 130.11600000
O 130.11600000 142.67400000 130.11600000
Ni 128.02200000 140.58000000 132.20700000
Ni 128.02200000 142.67400000 134.30100000
Ni 130.11600000 140.58000000 134.30100000
Ni 130.11600000 142.67400000 132.20700000
O 130.11600000 140.58000000 132.20700000
O 130.11600000 142.67400000 134.30100000
O 128.02200000 140.58000000 134.30100000
O 128.02200000 142.67400000 132.20700000
Ni 128.02200000 140.58000000 136.39500000
Ni 128.02200000 142.67400000 138.48900000
Ni 130.11600000 140.58000000 138.48900000
Ni 130.11600000 142.67400000 136.39500000
O 130.11600000 140.58000000 136.39500000
O 130.11600000 142.67400000 138.48900000
O 128.02200000 140.58000000 138.48900000
O 128.02200000 142.67400000 136.39500000
Ni 128.02200000 140.58000000 140.58000000
Ni 128.02200000 142.67400000 142.67400000
Ni 130.11600000 140.58000000 142.67400000
Ni 130.11600000 142.67400000 140.58000000
O 130.11600000 140.58000000 140.58000000
O 130.11600000 142.67400000 142.67400000
O 128.02200000 140.58000000 142.67400000
O 128.02200000 142.67400000 140.58000000
Ni 128.02200000 140.58000000 144.76800000
Ni 128.02200000 142.67400000 146.85900000
Ni 130.11600000 140.58000000 146.85900000
Ni 130.11600000 142.67400000 144.76800000
O 130.11600000 140.58000000 144.76800000
O 130.11600000 142.67400000 146.85900000
O 128.02200000 140.58000000 146.85900000
O 128.02200000 142.67400000 144.76800000
Ni 128.02200000 140.58000000 148.95300000
Ni 128.02200000 142.67400000 151.04700000
Ni 130.11600000 140.58000000 151.04700000
Ni 130.11600000 142.67400000 148.95300000
O 130.11600000 140.58000000 148.95300000
O 130.11600000 142.67400000 151.04700000
O 128.02200000 140.58000000 151.04700000
O 128.02200000 142.67400000 148.95300000
Ni 128.02200000 140.58000000 153.14100000
Ni 128.02200000 142.67400000 155.23200000
Ni 130.11600000 140.58000000 155.23200000
Ni 130.11600000 142.67400000 153.14100000
O 130.11600000 140.58000000 153.14100000
O 130.11600000 142.67400000 155.23200000
O 128.02200000 140.58000000 155.23200000
O 128.02200000 142.67400000 153.14100000
Ni 128.02200000 140.58000000 157.32600000
Ni 128.02200000 142.67400000 159.42000000
Ni 130.11600000 140.58000000 159.42000000
Ni 130.11600000 142.67400000 157.32600000
O 130.11600000 140.58000000 157.32600000
O 130.11600000 142.67400000 159.42000000
O 128.02200000 140.58000000 159.42000000
O 128.02200000 142.67400000 157.32600000
Ni 128.02200000 140.58000000 161.51100000
Ni 128.02200000 142.67400000 163.60500000
Ni 130.11600000 140.58000000 163.60500000
Ni 130.11600000 142.67400000 161.51100000
O 130.11600000 140.58000000 161.51100000
O 130.11600000 142.67400000 163.60500000
O 128.02200000 140.58000000 163.60500000
O 128.02200000 142.67400000 161.51100000
Ni 128.02200000 140.58000000 165.69900000
Ni 128.02200000 142.67400000 167.79300000
Ni 130.11600000 140.58000000 167.79300000
Ni 130.11600000 142.67400000 165.69900000
O 130.11600000 140.58000000 165.69900000
O 130.11600000 142.67400000 167.79300000
O 128.02200000 140.58000000 167.79300000
O 128.02200000 142.67400000 165.69900000
Ni 130.11600000 142.67400000 169.88400000
O 130.11600000 140.58000000 169.88400000
Ni 128.02200000 146.85900000 130.11600000
Ni 130.11600000 144.76800000 130.11600000
Ni 130.11600000 146.85900000 128.02200000
O 130.11600000 146.85900000 130.11600000
Ni 128.02200000 144.76800000 132.20700000
Ni 128.02200000 146.85900000 134.30100000
Ni 130.11600000 144.76800000 134.30100000
Ni 130.11600000 146.85900000 132.20700000
O 130.11600000 144.76800000 132.20700000
O 130.11600000 146.85900000 134.30100000
O 128.02200000 144.76800000 134.30100000
O 128.02200000 146.85900000 132.20700000
Ni 128.02200000 144.76800000 136.39500000
Ni 128.02200000 146.85900000 138.48900000
Ni 130.11600000 144.76800000 138.48900000
Ni 130.11600000 146.85900000 136.39500000
O 130.11600000 144.76800000 136.39500000
O 130.11600000 146.85900000 138.48900000
O 128.02200000 144.76800000 138.48900000
O 128.02200000 146.85900000 136.39500000
Ni 128.02200000 144.76800000 140.58000000
Ni 128.02200000 146.85900000 142.67400000
Ni 130.11600000 144.76800000 142.67400000
Ni 130.11600000 146.85900000 140.58000000
O 130.11600000 144.76800000 140.58000000
O 130.11600000 146.85900000 142.67400000
O 128.02200000 144.76800000 142.67400000
O 128.02200000 146.85900000 140.58000000
Ni 128.02200000 144.76800000 144.76800000
Ni 128.02200000 146.85900000 146.85900000
Ni 130.11600000 144.76800000 146.85900000
Ni 130.11600000 146.85900000 144.76800000
O 130.11600000 144.76800000 144.76800000
O 130.11600000 146.85900000 146.85900000
O 128.02200000 144.76800000 146.85900000
O 128.02200000 146.85900000 144.76800000
Ni 128.02200000 144.76800000 148.95300000
Ni 128.02200000 146.85900000 151.04700000
Ni 130.11600000 144.76800000 151.04700000
Ni 130.11600000 146.85900000 148.95300000
O 130.11600000 144.76800000 148.95300000
O 130.11600000 146.85900000 151.04700000
O 128.02200000 144.76800000 151.04700000
O 128.02200000 146.85900000 148.95300000
Ni 128.02200000 144.76800000 153.14100000
Ni 128.02200000 146.85900000 155.23200000
Ni 130.11600000 144.76800000 155.23200000
Ni 130.11600000 146.85900000 153.14100000
O 130.11600000 144.76800000 153.14100000
O 130.11600000 146.85900000 155.23200000
O 128.02200000 144.76800000 155.23200000
O 128.02200000 146.85900000 153.14100000
Ni 128.02200000 144.76800000 157.32600000
Ni 128.02200000 146.85900000 159.42000000
Ni 130.11600000 144.76800000 159.42000000
Ni 130.11600000 146.85900000 157.32600000
O 130.11600000 144.76800000 157.32600000
O 130.11600000 146.85900000 159.42000000
O 128.02200000 144.76800000 159.42000000
O 128.02200000 146.85900000 157.32600000
Ni 128.02200000 144.76800000 161.51100000
Ni 128.02200000 146.85900000 163.60500000
Ni 130.11600000 144.76800000 163.60500000
Ni 130.11600000 146.85900000 161.51100000
O 130.11600000 144.76800000 161.51100000
O 130.11600000 146.85900000 163.60500000
O 128.02200000 144.76800000 163.60500000
O 128.02200000 146.85900000 161.51100000
Ni 128.02200000 144.76800000 165.69900000
Ni 128.02200000 146.85900000 167.79300000
Ni 130.11600000 144.76800000 167.79300000
Ni 130.11600000 146.85900000 165.69900000
O 130.11600000 144.76800000 165.69900000
O 130.11600000 146.85900000 167.79300000
O 128.02200000 144.76800000 167.79300000
O 128.02200000 146.85900000 165.69900000
Ni 130.11600000 146.85900000 169.88400000
O 130.11600000 144.76800000 169.88400000
O 130.11600000 146.85900000 171.97800000
O 128.02200000 146.85900000 169.88400000
Ni 128.02200000 151.04700000 130.11600000
Ni 130.11600000 148.95300000 130.11600000
Ni 130.11600000 151.04700000 128.02200000
O 130.11600000 148.95300000 128.02200000
O 130.11600000 151.04700000 130.11600000
O 128.02200000 148.95300000 130.11600000
Ni 128.02200000 148.95300000 132.20700000
Ni 128.02200000 151.04700000 134.30100000
Ni 130.11600000 148.95300000 134.30100000
Ni 130.11600000 151.04700000 132.20700000
O 130.11600000 148.95300000 132.20700000
O 130.11600000 151.04700000 134.30100000
O 128.02200000 148.95300000 134.30100000
O 128.02200000 151.04700000 132.20700000
Ni 128.02200000 148.95300000 136.39500000
Ni 128.02200000 151.04700000 138.48900000
Ni 130.11600000 148.95300000 138.48900000
Ni 130.11600000 151.04700000 136.39500000
O 130.11600000 148.95300000 136.39500000
O 130.11600000 151.04700000 138.48900000
O 128.02200000 148.95300000 138.48900000
O 128.02200000 151.04700000 136.39500000
Ni 128.02200000 148.95300000 140.58000000
Ni 128.02200000 151.04700000 142.67400000
Ni 130.11600000 148.95300000 142.67400000
Ni 130.11600000 151.04700000 140.58000000
O 130.11600000 148.95300000 140.58000000
O 130.11600000 151.04700000 142.67400000
O 128.02200000 148.95300000 142.67400000
O 128.02200000 151.04700000 140.58000000
Ni 128.02200000 148.95300000 144.76800000
Ni 128.02200000 151.04700000 146.85900000
Ni 130.11600000 148.95300000 146.85900000
Ni 130.11600000 151.04700000 144.76800000
O 130.11600000 148.95300000 144.76800000
O 130.11600000 151.04700000 146.85900000
O 128.02200000 148.95300000 146.85900000
O 128.02200000 151.04700000 144.76800000
Ni 128.02200000 148.95300000 148.95300000
Ni 128.02200000 151.04700000 151.04700000
Ni 130.11600000 148.95300000 151.04700000
Ni 130.11600000 151.04700000 148.95300000
O 130.11600000 148.95300000 148.95300000
O 130.11600000 151.04700000 151.04700000
O 128.02200000 148.95300000 151.04700000
O 128.02200000 151.04700000 148.95300000
Ni 128.02200000 148.95300000 153.14100000
Ni 128.02200000 151.04700000 155.23200000
Ni 130.11600000 148.95300000 155.23200000
Ni 130.11600000 151.04700000 153.14100000
O 130.11600000 148.95300000 153.14100000
O 130.11600000 151.04700000 155.23200000
O 128.02200000 148.95300000 155.23200000
O 128.02200000 151.04700000 153.14100000
Ni 128.02200000 148.95300000 157.32600000
Ni 128.02200000 151.04700000 159.42000000
Ni 130.11600000 148.95300000 159.42000000
Ni 130.11600000 151.04700000 157.32600000
O 130.11600000 148.95300000 157.32600000
O 130.11600000 151.04700000 159.42000000
O 128.02200000 148.95300000 159.42000000
O 128.02200000 151.04700000 157.32600000
Ni 128.02200000 148.95300000 161.51100000
Ni 128.02200000 151.04700000 163.60500000
Ni 130.11600000 148.95300000 163.60500000
Ni 130.11600000 151.04700000 161.51100000
O 130.11600000 148.95300000 161.51100000
O 130.11600000 151.04700000 163.60500000
O 128.02200000 148.95300000 163.60500000
O 128.02200000 151.04700000 161.51100000
Ni 128.02200000 148.95300000 165.69900000
Ni 128.02200000 151.04700000 167.79300000
Ni 130.11600000 148.95300000 167.79300000
Ni 130.11600000 151.04700000 165.69900000
O 130.11600000 148.95300000 165.69900000
O 130.11600000 151.04700000 167.79300000
O 128.02200000 148.95300000 167.79300000
O 128.02200000 151.04700000 165.69900000
Ni 128.02200000 148.95300000 169.88400000
Ni 130.11600000 148.95300000 171.97800000
Ni 130.11600000 151.04700000 169.88400000
O 130.11600000 148.95300000 169.88400000
O 130.11600000 151.04700000 171.97800000
O 128.02200000 151.04700000 169.88400000
Ni 130.11600000 153.14100000 130.11600000
O 130.11600000 153.14100000 128.02200000
O 130.11600000 155.23200000 130.11600000
O 128.02200000 153.14100000 130.11600000
Ni 128.02200000 153.14100000 132.20700000
Ni 128.02200000 155.23200000 134.30100000
Ni 130.11600000 153.14100000 134.30100000
Ni 130.11600000 155.23200000 132.20700000
O 130.11600000 153.14100000 132.20700000
O 130.11600000 155.23200000 134.30100000
O 128.02200000 153.14100000 134.30100000
O 128.02200000 155.23200000 132.20700000
Ni 128.02200000 153.14100000 136.39500000
Ni 128.02200000 155.23200000 138.48900000
Ni 130.11600000 153.14100000 138.48900000
Ni 130.11600000 155.23200000 136.39500000
O 130.11600000 153.14100000 136.39500000
O 130.11600000 155.23200000 138.48900000
O 128.02200000 153.14100000 138.48900000
O 128.02200000 155.23200000 136.39500000
Ni 128.02200000 153.14100000 140.58000000
Ni 128.02200000 155.23200000 142.67400000
Ni 130.11600000 153.14100000 142.67400000
Ni 130.11600000 155.23200000 140.58000000
O 130.11600000 153.14100000 140.58000000
O 130.11600000 155.23200000 142.67400000
O 128.02200000 153.14100000 142.67400000
O 128.02200000 155.23200000 140.58000000
Ni 128.02200000 153.14100000 144.76800000
Ni 128.02200000 155.23200000 146.85900000
Ni 130.11600000 153.14100000 146.85900000
Ni 130.11600000 155.23200000 144.76800000
O 130.11600000 153.14100000 144.76800000
O 130.11600000 155.23200000 146.85900000
O 128.02200000 153.14100000 146.85900000
O 128.02200000 155.23200000 144.76800000
Ni 128.02200000 153.14100000 148.95300000
Ni 128.02200000 155.23200000 151.04700000
Ni 130.11600000 153.14100000 151.04700000
Ni 130.11600000 155.23200000 148.95300000
O 130.11600000 153.14100000 148.95300000
O 130.11600000 155.23200000 151.04700000
O 128.02200000 153.14100000 151.04700000
O 128.02200000 155.23200000 148.95300000
Ni 128.02200000 153.14100000 153.14100000
Ni 128.02200000 155.23200000 155.23200000
Ni 130.11600000 153.14100000 155.23200000
Ni 130.11600000 155.23200000 153.14100000
O 130.11600000 153.14100000 153.14100000
O 130.11600000 155.23200000 155.23200000
O 128.02200000 153.14100000 155.23200000
O 128.02200000 155.23200000 153.14100000
Ni 128.02200000 153.14100000 157.32600000
Ni 128.02200000 155.23200000 159.42000000
Ni 130.11600000 153.14100000 159.42000000
Ni 130.11600000 155.23200000 157.32600000
O 130.11600000 153.14100000 157.32600000
O 130.11600000 155.23200000 159.42000000
O 128.02200000 153.14100000 159.42000000
O 128.02200000 155.23200000 157.32600000
Ni 128.02200000 153.14100000 161.51100000
Ni 128.02200000 155.23200000 163.60500000
Ni 130.11600000 153.14100000 163.60500000
Ni 130.11600000 155.23200000 161.51100000
O 130.11600000 153.14100000 161.51100000
O 130.11600000 155.23200000 163.60500000
O 128.02200000 153.14100000 163.60500000
O 128.02200000 155.23200000 161.51100000
Ni 128.02200000 153.14100000 165.69900000
Ni 128.02200000 155.23200000 167.79300000
Ni 130.11600000 153.14100000 167.79300000
Ni 130.11600000 155.23200000 165.69900000
O 130.11600000 153.14100000 165.69900000
O 130.11600000 155.23200000 167.79300000
O 128.02200000 153.14100000 167.79300000
O 128.02200000 155.23200000 165.69900000
Ni 128.02200000 153.14100000 169.88400000
Ni 130.11600000 153.14100000 171.97800000
Ni 130.11600000 155.23200000 169.88400000
O 130.11600000 153.14100000 169.88400000
Ni 130.11600000 157.32600000 130.11600000
O 130.11600000 159.42000000 130.11600000
Ni 128.02200000 157.32600000 132.20700000
Ni 128.02200000 159.42000000 134.30100000
Ni 130.11600000 157.32600000 134.30100000
Ni 130.11600000 159.42000000 132.20700000
O 130.11600000 157.32600000 132.20700000
O 130.11600000 159.42000000 134.30100000
O 128.02200000 157.32600000 134.30100000
O 128.02200000 159.42000000 132.20700000
Ni 128.02200000 157.32600000 136.39500000
Ni 128.02200000 159.42000000 138.48900000
Ni 130.11600000 157.32600000 138.48900000
Ni 130.11600000 159.42000000 136.39500000
O 130.11600000 157.32600000 136.39500000
O 130.11600000 159.42000000 138.48900000
O 128.02200000 157.32600000 138.48900000
O 128.02200000 159.42000000 136.39500000
Ni 128.02200000 157.32600000 140.58000000
Ni 128.02200000 159.42000000 142.67400000
Ni 130.11600000 157.32600000 142.67400000
Ni 130.11600000 159.42000000 140.58000000
O 130.11600000 157.32600000 140.58000000
O 130.11600000 159.42000000 142.67400000
O 128.02200000 157.32600000 142.67400000
O 128.02200000 159.42000000 140.58000000
Ni 128.02200000 157.32600000 144.76800000
Ni 128.02200000 159.42000000 146.85900000
Ni 130.11600000 157.32600000 146.85900000
Ni 130.11600000 159.42000000 144.76800000
O 130.11600000 157.32600000 144.76800000
O 130.11600000 159.42000000 146.85900000
O 128.02200000 157.32600000 146.85900000
O 128.02200000 159.42000000 144.76800000
Ni 128.02200000 157.32600000 148.95300000
Ni 128.02200000 159.42000000 151.04700000
Ni 130.11600000 157.32600000 151.04700000
Ni 130.11600000 159.42000000 148.95300000
O 130.11600000 157.32600000 148.95300000
O 130.11600000 159.42000000 151.04700000
O 128.02200000 157.32600000 151.04700000
O 128.02200000 159.42000000 148.95300000
Ni 128.02200000 157.32600000 153.14100000
Ni 128.02200000 159.42000000 155.23200000
Ni 130.11600000 157.32600000 155.23200000
Ni 130.11600000 159.42000000 153.14100000
O 130.11600000 157.32600000 153.14100000
O 130.11600000 159.42000000 155.23200000
O 128.02200000 157.32600000 155.23200000
O 128.02200000 159.42000000 153.14100000
Ni 128.02200000 157.32600000 157.32600000
Ni 128.02200000 159.42000000 159.42000000
Ni 130.11600000 157.32600000 159.42000000
Ni 130.11600000 159.42000000 157.32600000
O 130.11600000 157.32600000 157.32600000
O 130.11600000 159.42000000 159.42000000
O 128.02200000 157.32600000 159.42000000
O 128.02200000 159.42000000 157.32600000
Ni 128.02200000 157.32600000 161.51100000
Ni 128.02200000 159.42000000 163.60500000
Ni 130.11600000 157.32600000 163.60500000
Ni 130.11600000 159.42000000 161.51100000
O 130.11600000 157.32600000 161.51100000
O 130.11600000 159.42000000 163.60500000
O 128.02200000 157.32600000 163.60500000
O 128.02200000 159.42000000 161.51100000
Ni 128.02200000 157.32600000 165.69900000
Ni 128.02200000 159.42000000 167.79300000
Ni 130.11600000 157.32600000 167.79300000
Ni 130.11600000 159.42000000 165.69900000
O 130.11600000 157.32600000 165.69900000
O 130.11600000 159.42000000 167.79300000
O 128.02200000 157.32600000 167.79300000
O 128.02200000 159.42000000 165.69900000
Ni 130.11600000 159.42000000 169.88400000
O 130.11600000 157.32600000 169.88400000
Ni 130.11600000 161.51100000 134.30100000
Ni 130.11600000 163.60500000 132.20700000
O 130.11600000 161.51100000 132.20700000
O 130.11600000 163.60500000 134.30100000
O 128.02200000 161.51100000 134.30100000
Ni 128.02200000 161.51100000 136.39500000
Ni 128.02200000 163.60500000 138.48900000
Ni 130.11600000 161.51100000 138.48900000
Ni 130.11600000 163.60500000 136.39500000
O 130.11600000 161.51100000 136.39500000
O 130.11600000 163.60500000 138.48900000
O 128.02200000 161.51100000 138.48900000
O 128.02200000 163.60500000 136.39500000
Ni 128.02200000 161.51100000 140.58000000
Ni 128.02200000 163.60500000 142.67400000
Ni 130.11600000 161.51100000 142.67400000
Ni 130.11600000 163.60500000 140.58000000
O 130.11600000 161.51100000 140.58000000
O 130.11600000 163.60500000 142.67400000
O 128.02200000 161.51100000 142.67400000
O 128.02200000 163.60500000 140.58000000
Ni 128.02200000 161.51100000 144.76800000
Ni 128.02200000 163.60500000 146.85900000
Ni 130.11600000 161.51100000 146.85900000
Ni 130.11600000 163.60500000 144.76800000
O 130.11600000 161.51100000 144.76800000
O 130.11600000 163.60500000 146.85900000
O 128.02200000 161.51100000 146.85900000
O 128.02200000 163.60500000 144.76800000
Ni 128.02200000 161.51100000 148.95300000
Ni 128.02200000 163.60500000 151.04700000
Ni 130.11600000 161.51100000 151.04700000
Ni 130.11600000 163.60500000 148.95300000
O 130.11600000 161.51100000 148.95300000
O 130.11600000 163.60500000 151.04700000
O 128.02200000 161.51100000 151.04700000
O 128.02200000 163.60500000 148.95300000
Ni 128.02200000 161.51100000 153.14100000
Ni 128.02200000 163.60500000 155.23200000
Ni 130.11600000 161.51100000 155.23200000
Ni 130.11600000 163.60500000 153.14100000
O 130.11600000 161.51100000 153.14100000
O 130.11600000 163.60500000 155.23200000
O 128.02200000 161.51100000 155.23200000
O 128.02200000 163.60500000 153.14100000
Ni 128.02200000 161.51100000 157.32600000
Ni 128.02200000 163.60500000 159.42000000
Ni 130.11600000 161.51100000 159.42000000
Ni 130.11600000 163.60500000 157.32600000
O 130.11600000 161.51100000 157.32600000
O 130.11600000 163.60500000 159.42000000
O 128.02200000 161.51100000 159.42000000
O 128.02200000 163.60500000 157.32600000
Ni 128.02200000 161.51100000 161.51100000
Ni 128.02200000 163.60500000 163.60500000
Ni 130.11600000 161.51100000 163.60500000
Ni 130.11600000 163.60500000 161.51100000
O 130.11600000 161.51100000 161.51100000
O 130.11600000 163.60500000 163.60500000
O 128.02200000 161.51100000 163.60500000
O 128.02200000 163.60500000 161.51100000
Ni 128.02200000 161.51100000 165.69900000
Ni 130.11600000 161.51100000 167.79300000
Ni 130.11600000 163.60500000 165.69900000
O 130.11600000 161.51100000 165.69900000
O 130.11600000 163.60500000 167.79300000
Ni 130.11600000 165.69900000 134.30100000
Ni 130.11600000 165.69900000 138.48900000
Ni 130.11600000 167.79300000 136.39500000
O 130.11600000 165.69900000 136.39500000
O 130.11600000 167.79300000 138.48900000
O 128.02200000 165.69900000 138.48900000
Ni 128.02200000 165.69900000 140.58000000
Ni 128.02200000 167.79300000 142.67400000
Ni 130.11600000 165.69900000 142.67400000
Ni 130.11600000 167.79300000 140.58000000
O 130.11600000 165.69900000 140.58000000
O 130.11600000 167.79300000 142.67400000
O 128.02200000 165.69900000 142.67400000
O 128.02200000 167.79300000 140.58000000
Ni 128.02200000 165.69900000 144.76800000
Ni 128.02200000 167.79300000 146.85900000
Ni 130.11600000 165.69900000 146.85900000
Ni 130.11600000 167.79300000 144.76800000
O 130.11600000 165.69900000 144.76800000
O 130.11600000 167.79300000 146.85900000
O 128.02200000 165.69900000 146.85900000
O 128.02200000 167.79300000 144.76800000
Ni 128.02200000 165.69900000 148.95300000
Ni 128.02200000 167.79300000 151.04700000
Ni 130.11600000 165.69900000 151.04700000
Ni 130.11600000 167.79300000 148.95300000
O 130.11600000 165.69900000 148.95300000
O 130.11600000 167.79300000 151.04700000
O 128.02200000 165.69900000 151.04700000
O 128.02200000 167.79300000 148.95300000
Ni 128.02200000 165.69900000 153.14100000
Ni 128.02200000 167.79300000 155.23200000
Ni 130.11600000 165.69900000 155.23200000
Ni 130.11600000 167.79300000 153.14100000
O 130.11600000 165.69900000 153.14100000
O 130.11600000 167.79300000 155.23200000
O 128.02200000 165.69900000 155.23200000
O 128.02200000 167.79300000 153.14100000
Ni 128.02200000 165.69900000 157.32600000
Ni 128.02200000 167.79300000 159.42000000
Ni 130.11600000 165.69900000 159.42000000
Ni 130.11600000 167.79300000 157.32600000
O 130.11600000 165.69900000 157.32600000
O 130.11600000 167.79300000 159.42000000
O 128.02200000 165.69900000 159.42000000
O 128.02200000 167.79300000 157.32600000
Ni 128.02200000 165.69900000 161.51100000
Ni 130.11600000 165.69900000 163.60500000
Ni 130.11600000 167.79300000 161.51100000
O 130.11600000 165.69900000 161.51100000
O 130.11600000 167.79300000 163.60500000
O 130.11600000 165.69900000 165.69900000
Ni 130.11600000 169.88400000 142.67400000
O 130.11600000 169.88400000 140.58000000
Ni 130.11600000 169.88400000 146.85900000
O 130.11600000 169.88400000 144.76800000
O 130.11600000 171.97800000 146.85900000
O 128.02200000 169.88400000 146.85900000
Ni 128.02200000 169.88400000 148.95300000
Ni 130.11600000 169.88400000 151.04700000
Ni 130.11600000 171.97800000 148.95300000
O 130.11600000 169.88400000 148.95300000
O 130.11600000 171.97800000 151.04700000
O 128.02200000 169.88400000 151.04700000
Ni 128.02200000 169.88400000 153.14100000
Ni 130.11600000 169.88400000 155.23200000
Ni 130.11600000 171.97800000 153.14100000
O 130.11600000 169.88400000 153.14100000
Ni 130.11600000 169.88400000 159.42000000
O 130.11600000 169.88400000 157.32600000
O 134.30100000 125.92800000 142.67400000
Ni 134.30100000 125.92800000 144.76800000
O 134.30100000 125.92800000 146.85900000
Ni 132.20700000 125.92800000 151.04700000
Ni 134.30100000 125.92800000 148.95300000
O 134.30100000 125.92800000 151.04700000
O 132.20700000 125.92800000 148.95300000
Ni 134.30100000 125.92800000 153.14100000
O 134.30100000 125.92800000 155.23200000
Ni 134.30100000 125.92800000 157.32600000
O 134.30100000 130.11600000 134.30100000
Ni 132.20700000 130.11600000 138.48900000
Ni 134.30100000 128.02200000 138.48900000
Ni 134.30100000 130.11600000 136.39500000
O 134.30100000 130.11600000 138.48900000
O 132.20700000 130.11600000 136.39500000
Ni 132.20700000 128.02200000 140.58000000
Ni 132.20700000 130.11600000 142.67400000
Ni 134.30100000 128.02200000 142.67400000
Ni 134.30100000 130.11600000 140.58000000
O 134.30100000 128.02200000 140.58000000
O 134.30100000 130.11600000 142.67400000
O 132.20700000 128.02200000 142.67400000
O 132.20700000 130.11600000 140.58000000
Ni 132.20700000 128.02200000 144.76800000
Ni 132.20700000 130.11600000 146.85900000
Ni 134.30100000 128.02200000 146.85900000
Ni 134.30100000 130.11600000 144.76800000
O 134.30100000 128.02200000 144.76800000
O 134.30100000 130.11600000 146.85900000
O 132.20700000 128.02200000 146.85900000
O 132.20700000 130.11600000 144.76800000
Ni 132.20700000 128.02200000 148.95300000
Ni 132.20700000 130.11600000 151.04700000
Ni 134.30100000 128.02200000 151.04700000
Ni 134.30100000 130.11600000 148.95300000
O 134.30100000 128.02200000 148.95300000
O 134.30100000 130.11600000 151.04700000
O 132.20700000 128.02200000 151.04700000
O 132.20700000 130.11600000 148.95300000
Ni 132.20700000 128.02200000 153.14100000
Ni 132.20700000 130.11600000 155.23200000
Ni 134.30100000 128.02200000 155.23200000
Ni 134.30100000 130.11600000 153.14100000
O 134.30100000 128.02200000 153.14100000
O 134.30100000 130.11600000 155.23200000
O 132.20700000 128.02200000 155.23200000
O 132.20700000 130.11600000 153.14100000
Ni 132.20700000 128.02200000 157.32600000
Ni 132.20700000 130.11600000 159.42000000
Ni 134.30100000 128.02200000 159.42000000
Ni 134.30100000 130.11600000 157.32600000
O 134.30100000 128.02200000 157.32600000
O 134.30100000 130.11600000 159.42000000
O 132.20700000 128.02200000 159.42000000
O 132.20700000 130.11600000 157.32600000
Ni 132.20700000 130.11600000 163.60500000
Ni 134.30100000 130.11600000 161.51100000
O 134.30100000 128.02200000 161.51100000
O 134.30100000 130.11600000 163.60500000
O 132.20700000 130.11600000 161.51100000
Ni 134.30100000 130.11600000 165.69900000
O 134.30100000 134.30100000 130.11600000
Ni 132.20700000 134.30100000 134.30100000
Ni 134.30100000 132.20700000 134.30100000
Ni 134.30100000 134.30100000 132.20700000
O 134.30100000 132.20700000 132.20700000
O 134.30100000 134.30100000 134.30100000
O 132.20700000 132.20700000 134.30100000
O 132.20700000 134.30100000 132.20700000
Ni 132.20700000 132.20700000 136.39500000
Ni 132.20700000 134.30100000 138.48900000
Ni 134.30100000 132.20700000 138.48900000
Ni 134.30100000 134.30100000 136.39500000
O 134.30100000 132.20700000 136.39500000
O 134.30100000 134.30100000 138.48900000
O 132.20700000 132.20700000 138.48900000
O 132.20700000 134.30100000 136.39500000
Ni 132.20700000 132.20700000 140.58000000
Ni 132.20700000 134.30100000 142.67400000
Ni 134.30100000 132.20700000 142.67400000
Ni 134.30100000 134.30100000 140.58000000
O 134.30100000 132.20700000 140.58000000
O 134.30100000 134.30100000 142.67400000
O 132.20700000 132.20700000 142.67400000
O 132.20700000 134.30100000 140.58000000
Ni 132.20700000 132.20700000 144.76800000
Ni 132.20700000 134.30100000 146.85900000
Ni 134.30100000 132.20700000 146.85900000
Ni 134.30100000 134.30100000 144.76800000
O 134.30100000 132.20700000 144.76800000
O 134.30100000 134.30100000 146.85900000
O 132.20700000 132.20700000 146.85900000
O 132.20700000 134.30100000 144.76800000
Ni 132.20700000 132.20700000 148.95300000
Ni 132.20700000 134.30100000 151.04700000
Ni 134.30100000 132.20700000 151.04700000
Ni 134.30100000 134.30100000 148.95300000
O 134.30100000 132.20700000 148.95300000
O 134.30100000 134.30100000 151.04700000
O 132.20700000 132.20700000 151.04700000
O 132.20700000 134.30100000 148.95300000
Ni 132.20700000 132.20700000 153.14100000
Ni 132.20700000 134.30100000 155.23200000
Ni 134.30100000 132.20700000 155.23200000
Ni 134.30100000 134.30100000 153.14100000
O 134.30100000 132.20700000 153.14100000
O 134.30100000 134.30100000 155.23200000
O 132.20700000 132.20700000 155.23200000
O 132.20700000 134.30100000 153.14100000
Ni 132.20700000 132.20700000 157.32600000
Ni 132.20700000 134.30100000 159.42000000
Ni 134.30100000 132.20700000 159.42000000
Ni 134.30100000 134.30100000 157.32600000
O 134.30100000 132.20700000 157.32600000
O 134.30100000 134.30100000 159.42000000
O 132.20700000 132.20700000 159.42000000
O 132.20700000 134.30100000 157.32600000
Ni 132.20700000 132.20700000 161.51100000
Ni 132.20700000 134.30100000 163.60500000
Ni 134.30100000 132.20700000 163.60500000
Ni 134.30100000 134.30100000 161.51100000
O 134.30100000 132.20700000 161.51100000
O 134.30100000 134.30100000 163.60500000
O 132.20700000 132.20700000 163.60500000
O 132.20700000 134.30100000 161.51100000
Ni 132.20700000 132.20700000 165.69900000
Ni 132.20700000 134.30100000 167.79300000
Ni 134.30100000 132.20700000 167.79300000
Ni 134.30100000 134.30100000 165.69900000
O 134.30100000 132.20700000 165.69900000
O 134.30100000 134.30100000 167.79300000
O 132.20700000 134.30100000 165.69900000
Ni 134.30100000 134.30100000 169.88400000
Ni 132.20700000 138.48900000 130.11600000
Ni 134.30100000 136.39500000 130.11600000
Ni 134.30100000 138.48900000 128.02200000
O 134.30100000 138.48900000 130.11600000
O 132.20700000 136.39500000 130.11600000
Ni 132.20700000 136.39500000 132.20700000
Ni 132.20700000 138.48900000 134.30100000
Ni 134.30100000 136.39500000 134.30100000
Ni 134.30100000 138.48900000 132.20700000
O 134.30100000 136.39500000 132.20700000
O 134.30100000 138.48900000 134.30100000
O 132.20700000 136.39500000 134.30100000
O 132.20700000 138.48900000 132.20700000
Ni 132.20700000 136.39500000 136.39500000
Ni 132.20700000 138.48900000 138.48900000
Ni 134.30100000 136.39500000 138.48900000
Ni 134.30100000 138.48900000 136.39500000
O 134.30100000 136.39500000 136.39500000
O 134.30100000 138.48900000 138.48900000
O 132.20700000 136.39500000 138.48900000
O 132.20700000 138.48900000 136.39500000
Ni 132.20700000 136.39500000 140.58000000
Ni 132.20700000 138.48900000 142.67400000
Ni 134.30100000 136.39500000 142.67400000
Ni 134.30100000 138.48900000 140.58000000
O 134.30100000 136.39500000 140.58000000
O 134.30100000 138.48900000 142.67400000
O 132.20700000 136.39500000 142.67400000
O 132.20700000 138.48900000 140.58000000
Ni 132.20700000 136.39500000 144.76800000
Ni 132.20700000 138.48900000 146.85900000
Ni 134.30100000 136.39500000 146.85900000
Ni 134.30100000 138.48900000 144.76800000
O 134.30100000 136.39500000 144.76800000
O 134.30100000 138.48900000 146.85900000
O 132.20700000 136.39500000 146.85900000
O 132.20700000 138.48900000 144.76800000
Ni 132.20700000 136.39500000 148.95300000
Ni 132.20700000 138.48900000 151.04700000
Ni 134.30100000 136.39500000 151.04700000
Ni 134.30100000 138.48900000 148.95300000
O 134.30100000 136.39500000 148.95300000
O 134.30100000 138.48900000 151.04700000
O 132.20700000 136.39500000 151.04700000
O 132.20700000 138.48900000 148.95300000
Ni 132.20700000 136.39500000 153.14100000
Ni 132.20700000 138.48900000 155.23200000
Ni 134.30100000 136.39500000 155.23200000
Ni 134.30100000 138.48900000 153.14100000
O 134.30100000 136.39500000 153.14100000
O 134.30100000 138.48900000 155.23200000
O 132.20700000 136.39500000 155.23200000
O 132.20700000 138.48900000 153.14100000
Ni 132.20700000 136.39500000 157.32600000
Ni 132.20700000 138.48900000 159.42000000
Ni 134.30100000 136.39500000 159.42000000
Ni 134.30100000 138.48900000 157.32600000
O 134.30100000 136.39500000 157.32600000
O 134.30100000 138.48900000 159.42000000
O 132.20700000 136.39500000 159.42000000
O 132.20700000 138.48900000 157.32600000
Ni 132.20700000 136.39500000 161.51100000
Ni 132.20700000 138.48900000 163.60500000
Ni 134.30100000 136.39500000 163.60500000
Ni 134.30100000 138.48900000 161.51100000
O 134.30100000 136.39500000 161.51100000
O 134.30100000 138.48900000 163.60500000
O 132.20700000 136.39500000 163.60500000
O 132.20700000 138.48900000 161.51100000
Ni 132.20700000 136.39500000 165.69900000
Ni 132.20700000 138.48900000 167.79300000
Ni 134.30100000 136.39500000 167.79300000
Ni 134.30100000 138.48900000 165.69900000
O 134.30100000 136.39500000 165.69900000
O 134.30100000 138.48900000 167.79300000
O 132.20700000 136.39500000 167.79300000
O 132.20700000 138.48900000 165.69900000
Ni 132.20700000 136.39500000 169.88400000
Ni 134.30100000 138.48900000 169.88400000
O 134.30100000 136.39500000 169.88400000
O 134.30100000 138.48900000 171.97800000
O 132.20700000 138.48900000 169.88400000
O 134.30100000 142.67400000 125.92800000
Ni 132.20700000 140.58000000 128.02200000
Ni 132.20700000 142.67400000 130.11600000
Ni 134.30100000 140.58000000 130.11600000
Ni 134.30100000 142.67400000 128.02200000
O 134.30100000 140.58000000 128.02200000
O 134.30100000 142.67400000 130.11600000
O 132.20700000 140.58000000 130.11600000
O 132.20700000 142.67400000 128.02200000
Ni 132.20700000 140.58000000 132.20700000
Ni 132.20700000 142.67400000 134.30100000
Ni 134.30100000 140.58000000 134.30100000
Ni 134.30100000 142.67400000 132.20700000
O 134.30100000 140.58000000 132.20700000
O 134.30100000 142.67400000 134.30100000
O 132.20700000 140.58000000 134.30100000
O 132.20700000 142.67400000 132.20700000
Ni 132.20700000 140.58000000 136.39500000
Ni 132.20700000 142.67400000 138.48900000
Ni 134.30100000 140.58000000 138.48900000
Ni 134.30100000 142.67400000 136.39500000
O 134.30100000 140.58000000 136.39500000
O 134.30100000 142.67400000 138.48900000
O 132.20700000 140.58000000 138.48900000
O 132.20700000 142.67400000 136.39500000
Ni 132.20700000 140.58000000 140.58000000
Ni 132.20700000 142.67400000 142.67400000
Ni 134.30100000 140.58000000 142.67400000
Ni 134.30100000 142.67400000 140.58000000
O 134.30100000 140.58000000 140.58000000
O 134.30100000 142.67400000 142.67400000
O 132.20700000 140.58000000 142.67400000
O 132.20700000 142.67400000 140.58000000
Ni 132.20700000 140.58000000 144.76800000
Ni 132.20700000 142.67400000 146.85900000
Ni 134.30100000 140.58000000 146.85900000
Ni 134.30100000 142.67400000 144.76800000
O 134.30100000 140.58000000 144.76800000
O 134.30100000 142.67400000 146.85900000
O 132.20700000 140.58000000 146.85900000
O 132.20700000 142.67400000 144.76800000
Ni 132.20700000 140.58000000 148.95300000
Ni 132.20700000 142.67400000 151.04700000
Ni 134.30100000 140.58000000 151.04700000
Ni 134.30100000 142.67400000 148.95300000
O 134.30100000 140.58000000 148.95300000
O 134.30100000 142.67400000 151.04700000
O 132.20700000 140.58000000 151.04700000
O 132.20700000 142.67400000 148.95300000
Ni 132.20700000 140.58000000 153.14100000
Ni 132.20700000 142.67400000 155.23200000
Ni 134.30100000 140.58000000 155.23200000
Ni 134.30100000 142.67400000 153.14100000
O 134.30100000 140.58000000 153.14100000
O 134.30100000 142.67400000 155.23200000
O 132.20700000 140.58000000 155.23200000
O 132.20700000 142.67400000 153.14100000
Ni 132.20700000 140.58000000 157.32600000
Ni 132.20700000 142.67400000 159.42000000
Ni 134.30100000 140.58000000 159.42000000
Ni 134.30100000 142.67400000 157.32600000
O 134.30100000 140.58000000 157.32600000
O 134.30100000 142.67400000 159.42000000
O 132.20700000 140.58000000 159.42000000
O 132.20700000 142.67400000 157.32600000
Ni 132.20700000 140.58000000 161.51100000
Ni 132.20700000 142.67400000 163.60500000
Ni 134.30100000 140.58000000 163.60500000
Ni 134.30100000 142.67400000 161.51100000
O 134.30100000 140.58000000 161.51100000
O 134.30100000 142.67400000 163.60500000
O 132.20700000 140.58000000 163.60500000
O 132.20700000 142.67400000 161.51100000
Ni 132.20700000 140.58000000 165.69900000
Ni 132.20700000 142.67400000 167.79300000
Ni 134.30100000 140.58000000 167.79300000
Ni 134.30100000 142.67400000 165.69900000
O 134.30100000 140.58000000 165.69900000
O 134.30100000 142.67400000 167.79300000
O 132.20700000 140.58000000 167.79300000
O 132.20700000 142.67400000 165.69900000
Ni 132.20700000 140.58000000 169.88400000
Ni 132.20700000 142.67400000 171.97800000
Ni 134.30100000 140.58000000 171.97800000
Ni 134.30100000 142.67400000 169.88400000
O 134.30100000 140.58000000 169.88400000
O 134.30100000 142.67400000 171.97800000
O 132.20700000 140.58000000 171.97800000
O 132.20700000 142.67400000 169.88400000
Ni 134.30100000 142.67400000 174.07200000
Ni 134.30100000 144.76800000 125.92800000
O 134.30100000 146.85900000 125.92800000
Ni 132.20700000 144.76800000 128.02200000
Ni 132.20700000 146.85900000 130.11600000
Ni 134.30100000 144.76800000 130.11600000
Ni 134.30100000 146.85900000 128.02200000
O 134.30100000 144.76800000 128.02200000
O 134.30100000 146.85900000 130.11600000
O 132.20700000 144.76800000 130.11600000
O 132.20700000 146.85900000 128.02200000
Ni 132.20700000 144.76800000 132.20700000
Ni 132.20700000 146.85900000 134.30100000
Ni 134.30100000 144.76800000 134.30100000
Ni 134.30100000 146.85900000 132.20700000
O 134.30100000 144.76800000 132.20700000
O 134.30100000 146.85900000 134.30100000
O 132.20700000 144.76800000 134.30100000
O 132.20700000 146.85900000 132.20700000
Ni 132.20700000 144.76800000 136.39500000
Ni 132.20700000 146.85900000 138.48900000
Ni 134.30100000 144.76800000 138.48900000
Ni 134.30100000 146.85900000 136.39500000
O 134.30100000 144.76800000 136.39500000
O 134.30100000 146.85900000 138.48900000
O 132.20700000 144.76800000 138.48900000
O 132.20700000 146.85900000 136.39500000
Ni 132.20700000 144.76800000 140.58000000
Ni 132.20700000 146.85900000 142.67400000
Ni 134.30100000 144.76800000 142.67400000
Ni 134.30100000 146.85900000 140.58000000
O 134.30100000 144.76800000 140.58000000
O 134.30100000 146.85900000 142.67400000
O 132.20700000 144.76800000 142.67400000
O 132.20700000 146.85900000 140.58000000
Ni 132.20700000 144.76800000 144.76800000
Ni 132.20700000 146.85900000 146.85900000
Ni 134.30100000 144.76800000 146.85900000
Ni 134.30100000 146.85900000 144.76800000
O 134.30100000 144.76800000 144.76800000
O 134.30100000 146.85900000 146.85900000
O 132.20700000 144.76800000 146.85900000
O 132.20700000 146.85900000 144.76800000
Ni 132.20700000 144.76800000 148.95300000
Ni 132.20700000 146.85900000 151.04700000
Ni 134.30100000 144.76800000 151.04700000
Ni 134.30100000 146.85900000 148.95300000
O 134.30100000 144.76800000 148.95300000
O 134.30100000 146.85900000 151.04700000
O 132.20700000 144.76800000 151.04700000
O 132.20700000 146.85900000 148.95300000
Ni 132.20700000 144.76800000 153.14100000
Ni 132.20700000 146.85900000 155.23200000
Ni 134.30100000 144.76800000 155.23200000
Ni 134.30100000 146.85900000 153.14100000
O 134.30100000 144.76800000 153.14100000
O 134.30100000 146.85900000 155.23200000
O 132.20700000 144.76800000 155.23200000
O 132.20700000 146.85900000 153.14100000
Ni 132.20700000 144.76800000 157.32600000
Ni 132.20700000 146.85900000 159.42000000
Ni 134.30100000 144.76800000 159.42000000
Ni 134.30100000 146.85900000 157.32600000
O 134.30100000 144.76800000 157.32600000
O 134.30100000 146.85900000 159.42000000
O 132.20700000 144.76800000 159.42000000
O 132.20700000 146.85900000 157.32600000
Ni 132.20700000 144.76800000 161.51100000
Ni 132.20700000 146.85900000 163.60500000
Ni 134.30100000 144.76800000 163.60500000
Ni 134.30100000 146.85900000 161.51100000
O 134.30100000 144.76800000 161.51100000
O 134.30100000 146.85900000 163.60500000
O 132.20700000 144.76800000 163.60500000
O 132.20700000 146.85900000 161.51100000
Ni 132.20700000 144.76800000 165.69900000
Ni 132.20700000 146.85900000 167.79300000
Ni 134.30100000 144.76800000 167.79300000
Ni 134.30100000 146.85900000 165.69900000
O 134.30100000 144.76800000 165.69900000
O 134.30100000 146.85900000 167.79300000
O 132.20700000 144.76800000 167.79300000
O 132.20700000 146.85900000 165.69900000
Ni 132.20700000 144.76800000 169.88400000
Ni 132.20700000 146.85900000 171.97800000
Ni 134.30100000 144.76800000 171.97800000
Ni 134.30100000 146.85900000 169.88400000
O 134.30100000 144.76800000 169.88400000
O 134.30100000 146.85900000 171.97800000
O 132.20700000 144.76800000 171.97800000
O 132.20700000 146.85900000 169.88400000
Ni 134.30100000 146.85900000 174.07200000
O 134.30100000 144.76800000 174.07200000
Ni 132.20700000 151.04700000 125.92800000
Ni 134.30100000 148.95300000 125.92800000
O 134.30100000 151.04700000 125.92800000
O 132.20700000 148.95300000 125.92800000
Ni 132.20700000 148.95300000 128.02200000
Ni 132.20700000 151.04700000 130.11600000
Ni 134.30100000 148.95300000 130.11600000
Ni 134.30100000 151.04700000 128.02200000
O 134.30100000 148.95300000 128.02200000
O 134.30100000 151.04700000 130.11600000
O 132.20700000 148.95300000 130.11600000
O 132.20700000 151.04700000 128.02200000
Ni 132.20700000 148.95300000 132.20700000
Ni 132.20700000 151.04700000 134.30100000
Ni 134.30100000 148.95300000 134.30100000
Ni 134.30100000 151.04700000 132.20700000
O 134.30100000 148.95300000 132.20700000
O 134.30100000 151.04700000 134.30100000
O 132.20700000 148.95300000 134.30100000
O 132.20700000 151.04700000 132.20700000
Ni 132.20700000 148.95300000 136.39500000
Ni 132.20700000 151.04700000 138.48900000
Ni 134.30100000 148.95300000 138.48900000
Ni 134.30100000 151.04700000 136.39500000
O 134.30100000 148.95300000 136.39500000
O 134.30100000 151.04700000 138.48900000
O 132.20700000 148.95300000 138.48900000
O 132.20700000 151.04700000 136.39500000
Ni 132.20700000 148.95300000 140.58000000
Ni 132.20700000 151.04700000 142.67400000
Ni 134.30100000 148.95300000 142.67400000
Ni 134.30100000 151.04700000 140.58000000
O 134.30100000 148.95300000 140.58000000
O 134.30100000 151.04700000 142.67400000
O 132.20700000 148.95300000 142.67400000
O 132.20700000 151.04700000 140.58000000
Ni 132.20700000 148.95300000 144.76800000
Ni 132.20700000 151.04700000 146.85900000
Ni 134.30100000 148.95300000 146.85900000
Ni 134.30100000 151.04700000 144.76800000
O 134.30100000 148.95300000 144.76800000
O 134.30100000 151.04700000 146.85900000
O 132.20700000 148.95300000 146.85900000
O 132.20700000 151.04700000 144.76800000
Ni 132.20700000 148.95300000 148.95300000
Ni 132.20700000 151.04700000 151.04700000
Ni 134.30100000 148.95300000 151.04700000
Ni 134.30100000 151.04700000 148.95300000
O 134.30100000 148.95300000 148.95300000
O 134.30100000 151.04700000 151.04700000
O 132.20700000 148.95300000 151.04700000
O 132.20700000 151.04700000 148.95300000
Ni 132.20700000 148.95300000 153.14100000
Ni 132.20700000 151.04700000 155.23200000
Ni 134.30100000 148.95300000 155.23200000
Ni 134.30100000 151.04700000 153.14100000
O 134.30100000 148.95300000 153.14100000
O 134.30100000 151.04700000 155.23200000
O 132.20700000 148.95300000 155.23200000
O 132.20700000 151.04700000 153.14100000
Ni 132.20700000 148.95300000 157.32600000
Ni 132.20700000 151.04700000 159.42000000
Ni 134.30100000 148.95300000 159.42000000
Ni 134.30100000 151.04700000 157.32600000
O 134.30100000 148.95300000 157.32600000
O 134.30100000 151.04700000 159.42000000
O 132.20700000 148.95300000 159.42000000
O 132.20700000 151.04700000 157.32600000
Ni 132.20700000 148.95300000 161.51100000
Ni 132.20700000 151.04700000 163.60500000
Ni 134.30100000 148.95300000 163.60500000
Ni 134.30100000 151.04700000 161.51100000
O 134.30100000 148.95300000 161.51100000
O 134.30100000 151.04700000 163.60500000
O 132.20700000 148.95300000 163.60500000
O 132.20700000 151.04700000 161.51100000
Ni 132.20700000 148.95300000 165.69900000
Ni 132.20700000 151.04700000 167.79300000
Ni 134.30100000 148.95300000 167.79300000
Ni 134.30100000 151.04700000 165.69900000
O 134.30100000 148.95300000 165.69900000
O 134.30100000 151.04700000 167.79300000
O 132.20700000 148.95300000 167.79300000
O 132.20700000 151.04700000 165.69900000
Ni 132.20700000 148.95300000 169.88400000
Ni 132.20700000 151.04700000 171.97800000
Ni 134.30100000 148.95300000 171.97800000
Ni 134.30100000 151.04700000 169.88400000
O 134.30100000 148.95300000 169.88400000
O 134.30100000 151.04700000 171.97800000
O 132.20700000 148.95300000 171.97800000
O 132.20700000 151.04700000 169.88400000
Ni 132.20700000 148.95300000 174.07200000
Ni 134.30100000 151.04700000 174.07200000
O 134.30100000 148.95300000 174.07200000
O 132.20700000 151.04700000 174.07200000
Ni 134.30100000 153.14100000 125.92800000
O 134.30100000 155.23200000 125.92800000
Ni 132.20700000 153.14100000 128.02200000
Ni 132.20700000 155.23200000 130.11600000
Ni 134.30100000 153.14100000 130.11600000
Ni 134.30100000 155.23200000 128.02200000
O 134.30100000 153.14100000 128.02200000
O 134.30100000 155.23200000 130.11600000
O 132.20700000 153.14100000 130.11600000
O 132.20700000 155.23200000 128.02200000
Ni 132.20700000 153.14100000 132.20700000
Ni 132.20700000 155.23200000 134.30100000
Ni 134.30100000 153.14100000 134.30100000
Ni 134.30100000 155.23200000 132.20700000
O 134.30100000 153.14100000 132.20700000
O 134.30100000 155.23200000 134.30100000
O 132.20700000 153.14100000 134.30100000
O 132.20700000 155.23200000 132.20700000
Ni 132.20700000 153.14100000 136.39500000
Ni 132.20700000 155.23200000 138.48900000
Ni 134.30100000 153.14100000 138.48900000
Ni 134.30100000 155.23200000 136.39500000
O 134.30100000 153.14100000 136.39500000
O 134.30100000 155.23200000 138.48900000
O 132.20700000 153.14100000 138.48900000
O 132.20700000 155.23200000 136.39500000
Ni 132.20700000 153.14100000 140.58000000
Ni 132.20700000 155.23200000 142.67400000
Ni 134.30100000 153.14100000 142.67400000
Ni 134.30100000 155.23200000 140.58000000
O 134.30100000 153.14100000 140.58000000
O 134.30100000 155.23200000 142.67400000
O 132.20700000 153.14100000 142.67400000
O 132.20700000 155.23200000 140.58000000
Ni 132.20700000 153.14100000 144.76800000
Ni 132.20700000 155.23200000 146.85900000
Ni 134.30100000 153.14100000 146.85900000
Ni 134.30100000 155.23200000 144.76800000
O 134.30100000 153.14100000 144.76800000
O 134.30100000 155.23200000 146.85900000
O 132.20700000 153.14100000 146.85900000
O 132.20700000 155.23200000 144.76800000
Ni 132.20700000 153.14100000 148.95300000
Ni 132.20700000 155.23200000 151.04700000
Ni 134.30100000 153.14100000 151.04700000
Ni 134.30100000 155.23200000 148.95300000
O 134.30100000 153.14100000 148.95300000
O 134.30100000 155.23200000 151.04700000
O 132.20700000 153.14100000 151.04700000
O 132.20700000 155.23200000 148.95300000
Ni 132.20700000 153.14100000 153.14100000
Ni 132.20700000 155.23200000 155.23200000
Ni 134.30100000 153.14100000 155.23200000
Ni 134.30100000 155.23200000 153.14100000
O 134.30100000 153.14100000 153.14100000
O 134.30100000 155.23200000 155.23200000
O 132.20700000 153.14100000 155.23200000
O 132.20700000 155.23200000 153.14100000
Ni 132.20700000 153.14100000 157.32600000
Ni 132.20700000 155.23200000 159.42000000
Ni 134.30100000 153.14100000 159.42000000
Ni 134.30100000 155.23200000 157.32600000
O 134.30100000 153.14100000 157.32600000
O 134.30100000 155.23200000 159.42000000
O 132.20700000 153.14100000 159.42000000
O 132.20700000 155.23200000 157.32600000
Ni 132.20700000 153.14100000 161.51100000
Ni 132.20700000 155.23200000 163.60500000
Ni 134.30100000 153.14100000 163.60500000
Ni 134.30100000 155.23200000 161.51100000
O 134.30100000 153.14100000 161.51100000
O 134.30100000 155.23200000 163.60500000
O 132.20700000 153.14100000 163.60500000
O 132.20700000 155.23200000 161.51100000
Ni 132.20700000 153.14100000 165.69900000
Ni 132.20700000 155.23200000 167.79300000
Ni 134.30100000 153.14100000 167.79300000
Ni 134.30100000 155.23200000 165.69900000
O 134.30100000 153.14100000 165.69900000
O 134.30100000 155.23200000 167.79300000
O 132.20700000 153.14100000 167.79300000
O 132.20700000 155.23200000 165.69900000
Ni 132.20700000 153.14100000 169.88400000
Ni 132.20700000 155.23200000 171.97800000
Ni 134.30100000 153.14100000 171.97800000
Ni 134.30100000 155.23200000 169.88400000
O 134.30100000 153.14100000 169.88400000
O 134.30100000 155.23200000 171.97800000
O 132.20700000 153.14100000 171.97800000
O 132.20700000 155.23200000 169.88400000
Ni 134.30100000 155.23200000 174.07200000
O 134.30100000 153.14100000 174.07200000
Ni 134.30100000 157.32600000 125.92800000
Ni 132.20700000 157.32600000 128.02200000
Ni 132.20700000 159.42000000 130.11600000
Ni 134.30100000 157.32600000 130.11600000
Ni 134.30100000 159.42000000 128.02200000
O 134.30100000 157.32600000 128.02200000
O 134.30100000 159.42000000 130.11600000
O 132.20700000 157.32600000 130.11600000
O 132.20700000 159.42000000 128.02200000
Ni 132.20700000 157.32600000 132.20700000
Ni 132.20700000 159.42000000 134.30100000
Ni 134.30100000 157.32600000 134.30100000
Ni 134.30100000 159.42000000 132.20700000
O 134.30100000 157.32600000 132.20700000
O 134.30100000 159.42000000 134.30100000
O 132.20700000 157.32600000 134.30100000
O 132.20700000 159.42000000 132.20700000
Ni 132.20700000 157.32600000 136.39500000
Ni 132.20700000 159.42000000 138.48900000
Ni 134.30100000 157.32600000 138.48900000
Ni 134.30100000 159.42000000 136.39500000
O 134.30100000 157.32600000 136.39500000
O 134.30100000 159.42000000 138.48900000
O 132.20700000 157.32600000 138.48900000
O 132.20700000 159.42000000 136.39500000
Ni 132.20700000 157.32600000 140.58000000
Ni 132.20700000 159.42000000 142.67400000
Ni 134.30100000 157.32600000 142.67400000
Ni 134.30100000 159.42000000 140.58000000
O 134.30100000 157.32600000 140.58000000
O 134.30100000 159.42000000 142.67400000
O 132.20700000 157.32600000 142.67400000
O 132.20700000 159.42000000 140.58000000
Ni 132.20700000 157.32600000 144.76800000
Ni 132.20700000 159.42000000 146.85900000
Ni 134.30100000 157.32600000 146.85900000
Ni 134.30100000 159.42000000 144.76800000
O 134.30100000 157.32600000 144.76800000
O 134.30100000 159.42000000 146.85900000
O 132.20700000 157.32600000 146.85900000
O 132.20700000 159.42000000 144.76800000
Ni 132.20700000 157.32600000 148.95300000
Ni 132.20700000 159.42000000 151.04700000
Ni 134.30100000 157.32600000 151.04700000
Ni 134.30100000 159.42000000 148.95300000
O 134.30100000 157.32600000 148.95300000
O 134.30100000 159.42000000 151.04700000
O 132.20700000 157.32600000 151.04700000
O 132.20700000 159.42000000 148.95300000
Ni 132.20700000 157.32600000 153.14100000
Ni 132.20700000 159.42000000 155.23200000
Ni 134.30100000 157.32600000 155.23200000
Ni 134.30100000 159.42000000 153.14100000
O 134.30100000 157.32600000 153.14100000
O 134.30100000 159.42000000 155.23200000
O 132.20700000 157.32600000 155.23200000
O 132.20700000 159.42000000 153.14100000
Ni 132.20700000 157.32600000 157.32600000
Ni 132.20700000 159.42000000 159.42000000
Ni 134.30100000 157.32600000 159.42000000
Ni 134.30100000 159.42000000 157.32600000
O 134.30100000 157.32600000 157.32600000
O 134.30100000 159.42000000 159.42000000
O 132.20700000 157.32600000 159.42000000
O 132.20700000 159.42000000 157.32600000
Ni 132.20700000 157.32600000 161.51100000
Ni 132.20700000 159.42000000 163.60500000
Ni 134.30100000 157.32600000 163.60500000
Ni 134.30100000 159.42000000 161.51100000
O 134.30100000 157.32600000 161.51100000
O 134.30100000 159.42000000 163.60500000
O 132.20700000 157.32600000 163.60500000
O 132.20700000 159.42000000 161.51100000
Ni 132.20700000 157.32600000 165.69900000
Ni 132.20700000 159.42000000 167.79300000
Ni 134.30100000 157.32600000 167.79300000
Ni 134.30100000 159.42000000 165.69900000
O 134.30100000 157.32600000 165.69900000
O 134.30100000 159.42000000 167.79300000
O 132.20700000 157.32600000 167.79300000
O 132.20700000 159.42000000 165.69900000
Ni 132.20700000 157.32600000 169.88400000
Ni 132.20700000 159.42000000 171.97800000
Ni 134.30100000 157.32600000 171.97800000
Ni 134.30100000 159.42000000 169.88400000
O 134.30100000 157.32600000 169.88400000
O 134.30100000 159.42000000 171.97800000
O 132.20700000 157.32600000 171.97800000
O 132.20700000 159.42000000 169.88400000
O 134.30100000 157.32600000 174.07200000
Ni 132.20700000 163.60500000 130.11600000
Ni 134.30100000 161.51100000 130.11600000
O 134.30100000 161.51100000 128.02200000
O 134.30100000 163.60500000 130.11600000
O 132.20700000 161.51100000 130.11600000
Ni 132.20700000 161.51100000 132.20700000
Ni 132.20700000 163.60500000 134.30100000
Ni 134.30100000 161.51100000 134.30100000
Ni 134.30100000 163.60500000 132.20700000
O 134.30100000 161.51100000 132.20700000
O 134.30100000 163.60500000 134.30100000
O 132.20700000 161.51100000 134.30100000
O 132.20700000 163.60500000 132.20700000
Ni 132.20700000 161.51100000 136.39500000
Ni 132.20700000 163.60500000 138.48900000
Ni 134.30100000 161.51100000 138.48900000
Ni 134.30100000 163.60500000 136.39500000
O 134.30100000 161.51100000 136.39500000
O 134.30100000 163.60500000 138.48900000
O 132.20700000 161.51100000 138.48900000
O 132.20700000 163.60500000 136.39500000
Ni 132.20700000 161.51100000 140.58000000
Ni 132.20700000 163.60500000 142.67400000
Ni 134.30100000 161.51100000 142.67400000
Ni 134.30100000 163.60500000 140.58000000
O 134.30100000 161.51100000 140.58000000
O 134.30100000 163.60500000 142.67400000
O 132.20700000 161.51100000 142.67400000
O 132.20700000 163.60500000 140.58000000
Ni 132.20700000 161.51100000 144.76800000
Ni 132.20700000 163.60500000 146.85900000
Ni 134.30100000 161.51100000 146.85900000
Ni 134.30100000 163.60500000 144.76800000
O 134.30100000 161.51100000 144.76800000
O 134.30100000 163.60500000 146.85900000
O 132.20700000 161.51100000 146.85900000
O 132.20700000 163.60500000 144.76800000
Ni 132.20700000 161.51100000 148.95300000
Ni 132.20700000 163.60500000 151.04700000
Ni 134.30100000 161.51100000 151.04700000
Ni 134.30100000 163.60500000 148.95300000
O 134.30100000 161.51100000 148.95300000
O 134.30100000 163.60500000 151.04700000
O 132.20700000 161.51100000 151.04700000
O 132.20700000 163.60500000 148.95300000
Ni 132.20700000 161.51100000 153.14100000
Ni 132.20700000 163.60500000 155.23200000
Ni 134.30100000 161.51100000 155.23200000
Ni 134.30100000 163.60500000 153.14100000
O 134.30100000 161.51100000 153.14100000
O 134.30100000 163.60500000 155.23200000
O 132.20700000 161.51100000 155.23200000
O 132.20700000 163.60500000 153.14100000
Ni 132.20700000 161.51100000 157.32600000
Ni 132.20700000 163.60500000 159.42000000
Ni 134.30100000 161.51100000 159.42000000
Ni 134.30100000 163.60500000 157.32600000
O 134.30100000 161.51100000 157.32600000
O 134.30100000 163.60500000 159.42000000
O 132.20700000 161.51100000 159.42000000
O 132.20700000 163.60500000 157.32600000
Ni 132.20700000 161.51100000 161.51100000
Ni 132.20700000 163.60500000 163.60500000
Ni 134.30100000 161.51100000 163.60500000
Ni 134.30100000 163.60500000 161.51100000
O 134.30100000 161.51100000 161.51100000
O 134.30100000 163.60500000 163.60500000
O 132.20700000 161.51100000 163.60500000
O 132.20700000 163.60500000 161.51100000
Ni 132.20700000 161.51100000 165.69900000
Ni 132.20700000 163.60500000 167.79300000
Ni 134.30100000 161.51100000 167.79300000
Ni 134.30100000 163.60500000 165.69900000
O 134.30100000 161.51100000 165.69900000
O 134.30100000 163.60500000 167.79300000
O 132.20700000 161.51100000 167.79300000
O 132.20700000 163.60500000 165.69900000
Ni 132.20700000 161.51100000 169.88400000
Ni 134.30100000 161.51100000 171.97800000
Ni 134.30100000 163.60500000 169.88400000
O 134.30100000 161.51100000 169.88400000
O 132.20700000 163.60500000 169.88400000
Ni 134.30100000 165.69900000 130.11600000
Ni 132.20700000 165.69900000 132.20700000
Ni 132.20700000 167.79300000 134.30100000
Ni 134.30100000 165.69900000 134.30100000
Ni 134.30100000 167.79300000 132.20700000
O 134.30100000 165.69900000 132.20700000
O 134.30100000 167.79300000 134.30100000
O 132.20700000 165.69900000 134.30100000
Ni 132.20700000 165.69900000 136.39500000
Ni 132.20700000 167.79300000 138.48900000
Ni 134.30100000 165.69900000 138.48900000
Ni 134.30100000 167.79300000 136.39500000
O 134.30100000 165.69900000 136.39500000
O 134.30100000 167.79300000 138.48900000
O 132.20700000 165.69900000 138.48900000
O 132.20700000 167.79300000 136.39500000
Ni 132.20700000 165.69900000 140.58000000
Ni 132.20700000 167.79300000 142.67400000
Ni 134.30100000 165.69900000 142.67400000
Ni 134.30100000 167.79300000 140.58000000
O 134.30100000 165.69900000 140.58000000
O 134.30100000 167.79300000 142.67400000
O 132.20700000 165.69900000 142.67400000
O 132.20700000 167.79300000 140.58000000
Ni 132.20700000 165.69900000 144.76800000
Ni 132.20700000 167.79300000 146.85900000
Ni 134.30100000 165.69900000 146.85900000
Ni 134.30100000 167.79300000 144.76800000
O 134.30100000 165.69900000 144.76800000
O 134.30100000 167.79300000 146.85900000
O 132.20700000 165.69900000 146.85900000
O 132.20700000 167.79300000 144.76800000
Ni 132.20700000 165.69900000 148.95300000
Ni 132.20700000 167.79300000 151.04700000
Ni 134.30100000 165.69900000 151.04700000
Ni 134.30100000 167.79300000 148.95300000
O 134.30100000 165.69900000 148.95300000
O 134.30100000 167.79300000 151.04700000
O 132.20700000 165.69900000 151.04700000
O 132.20700000 167.79300000 148.95300000
Ni 132.20700000 165.69900000 153.14100000
Ni 132.20700000 167.79300000 155.23200000
Ni 134.30100000 165.69900000 155.23200000
Ni 134.30100000 167.79300000 153.14100000
O 134.30100000 165.69900000 153.14100000
O 134.30100000 167.79300000 155.23200000
O 132.20700000 165.69900000 155.23200000
O 132.20700000 167.79300000 153.14100000
Ni 132.20700000 165.69900000 157.32600000
Ni 132.20700000 167.79300000 159.42000000
Ni 134.30100000 165.69900000 159.42000000
Ni 134.30100000 167.79300000 157.32600000
O 134.30100000 165.69900000 157.32600000
O 134.30100000 167.79300000 159.42000000
O 132.20700000 165.69900000 159.42000000
O 132.20700000 167.79300000 157.32600000
Ni 132.20700000 165.69900000 161.51100000
Ni 132.20700000 167.79300000 163.60500000
Ni 134.30100000 165.69900000 163.60500000
Ni 134.30100000 167.79300000 161.51100000
O 134.30100000 165.69900000 161.51100000
O 134.30100000 167.79300000 163.60500000
O 132.20700000 165.69900000 163.60500000
O 132.20700000 167.79300000 161.51100000
Ni 132.20700000 165.69900000 165.69900000
Ni 134.30100000 165.69900000 167.79300000
Ni 134.30100000 167.79300000 165.69900000
O 134.30100000 165.69900000 165.69900000
O 134.30100000 167.79300000 167.79300000
O 132.20700000 165.69900000 167.79300000
O 132.20700000 167.79300000 165.69900000
O 134.30100000 165.69900000 169.88400000
Ni 134.30100000 169.88400000 134.30100000
Ni 132.20700000 169.88400000 136.39500000
Ni 134.30100000 169.88400000 138.48900000
O 134.30100000 169.88400000 136.39500000
O 134.30100000 171.97800000 138.48900000
O 132.20700000 169.88400000 138.48900000
Ni 132.20700000 169.88400000 140.58000000
Ni 132.20700000 171.97800000 142.67400000
Ni 134.30100000 169.88400000 142.67400000
Ni 134.30100000 171.97800000 140.58000000
O 134.30100000 169.88400000 140.58000000
O 134.30100000 171.97800000 142.67400000
O 132.20700000 169.88400000 142.67400000
O 132.20700000 171.97800000 140.58000000
Ni 132.20700000 169.88400000 144.76800000
Ni 132.20700000 171.97800000 146.85900000
Ni 134.30100000 169.88400000 146.85900000
Ni 134.30100000 171.97800000 144.76800000
O 134.30100000 169.88400000 144.76800000
O 134.30100000 171.97800000 146.85900000
O 132.20700000 169.88400000 146.85900000
O 132.20700000 171.97800000 144.76800000
Ni 132.20700000 169.88400000 148.95300000
Ni 132.20700000 171.97800000 151.04700000
Ni 134.30100000 169.88400000 151.04700000
Ni 134.30100000 171.97800000 148.95300000
O 134.30100000 169.88400000 148.95300000
O 134.30100000 171.97800000 151.04700000
O 132.20700000 169.88400000 151.04700000
O 132.20700000 171.97800000 148.95300000
Ni 132.20700000 169.88400000 153.14100000
Ni 132.20700000 171.97800000 155.23200000
Ni 134.30100000 169.88400000 155.23200000
Ni 134.30100000 171.97800000 153.14100000
O 134.30100000 169.88400000 153.14100000
O 134.30100000 171.97800000 155.23200000
O 132.20700000 169.88400000 155.23200000
O 132.20700000 171.97800000 153.14100000
Ni 132.20700000 169.88400000 157.32600000
Ni 132.20700000 171.97800000 159.42000000
Ni 134.30100000 169.88400000 159.42000000
Ni 134.30100000 171.97800000 157.32600000
O 134.30100000 169.88400000 157.32600000
O 134.30100000 171.97800000 159.42000000
O 132.20700000 169.88400000 159.42000000
O 132.20700000 171.97800000 157.32600000
Ni 132.20700000 169.88400000 161.51100000
Ni 134.30100000 169.88400000 163.60500000
Ni 134.30100000 171.97800000 161.51100000
O 134.30100000 169.88400000 161.51100000
O 132.20700000 169.88400000 163.60500000
O 134.30100000 169.88400000 165.69900000
Ni 134.30100000 174.07200000 142.67400000
Ni 134.30100000 174.07200000 146.85900000
O 134.30100000 174.07200000 144.76800000
Ni 132.20700000 174.07200000 148.95300000
Ni 134.30100000 174.07200000 151.04700000
O 134.30100000 174.07200000 148.95300000
O 132.20700000 174.07200000 151.04700000
Ni 134.30100000 174.07200000 155.23200000
O 134.30100000 174.07200000 153.14100000
O 134.30100000 174.07200000 157.32600000
Ni 136.39500000 125.92800000 138.48900000
Ni 138.48900000 125.92800000 136.39500000
O 138.48900000 125.92800000 138.48900000
Ni 136.39500000 125.92800000 142.67400000
Ni 138.48900000 123.83700000 142.67400000
Ni 138.48900000 125.92800000 140.58000000
O 138.48900000 125.92800000 142.67400000
O 136.39500000 125.92800000 140.58000000
Ni 136.39500000 123.83700000 144.76800000
Ni 136.39500000 125.92800000 146.85900000
Ni 138.48900000 123.83700000 146.85900000
Ni 138.48900000 125.92800000 144.76800000
O 138.48900000 123.83700000 144.76800000
O 138.48900000 125.92800000 146.85900000
O 136.39500000 123.83700000 146.85900000
O 136.39500000 125.92800000 144.76800000
Ni 136.39500000 123.83700000 148.95300000
Ni 136.39500000 125.92800000 151.04700000
Ni 138.48900000 123.83700000 151.04700000
Ni 138.48900000 125.92800000 148.95300000
O 138.48900000 123.83700000 148.95300000
O 138.48900000 125.92800000 151.04700000
O 136.39500000 123.83700000 151.04700000
O 136.39500000 125.92800000 148.95300000
Ni 136.39500000 123.83700000 153.14100000
Ni 136.39500000 125.92800000 155.23200000
Ni 138.48900000 123.83700000 155.23200000
Ni 138.48900000 125.92800000 153.14100000
O 138.48900000 123.83700000 153.14100000
O 138.48900000 125.92800000 155.23200000
O 136.39500000 123.83700000 155.23200000
O 136.39500000 125.92800000 153.14100000
Ni 136.39500000 125.92800000 159.42000000
Ni 138.48900000 125.92800000 157.32600000
O 138.48900000 123.83700000 157.32600000
O 138.48900000 125.92800000 159.42000000
O 136.39500000 125.92800000 157.32600000
Ni 138.48900000 125.92800000 161.51100000
O 138.48900000 125.92800000 163.60500000
O 136.39500000 125.92800000 161.51100000
Ni 136.39500000 130.11600000 134.30100000
Ni 138.48900000 128.02200000 134.30100000
Ni 138.48900000 130.11600000 132.20700000
O 138.48900000 130.11600000 134.30100000
O 136.39500000 130.11600000 132.20700000
Ni 136.39500000 128.02200000 136.39500000
Ni 136.39500000 130.11600000 138.48900000
Ni 138.48900000 128.02200000 138.48900000
Ni 138.48900000 130.11600000 136.39500000
O 138.48900000 128.02200000 136.39500000
O 138.48900000 130.11600000 138.48900000
O 136.39500000 128.02200000 138.48900000
O 136.39500000 130.11600000 136.39500000
Ni 136.39500000 128.02200000 140.58000000
Ni 136.39500000 130.11600000 142.67400000
Ni 138.48900000 128.02200000 142.67400000
Ni 138.48900000 130.11600000 140.58000000
O 138.48900000 128.02200000 140.58000000
O 138.48900000 130.11600000 142.67400000
O 136.39500000 128.02200000 142.67400000
O 136.39500000 130.11600000 140.58000000
Ni 136.39500000 128.02200000 144.76800000
Ni 136.39500000 130.11600000 146.85900000
Ni 138.48900000 128.02200000 146.85900000
Ni 138.48900000 130.11600000 144.76800000
O 138.48900000 128.02200000 144.76800000
O 138.48900000 130.11600000 146.85900000
O 136.39500000 128.02200000 146.85900000
O 136.39500000 130.11600000 144.76800000
Ni 136.39500000 128.02200000 148.95300000
Ni 136.39500000 130.11600000 151.04700000
Ni 138.48900000 128.02200000 151.04700000
Ni 138.48900000 130.11600000 148.95300000
O 138.48900000 128.02200000 148.95300000
O 138.48900000 130.11600000 151.04700000
O 136.39500000 128.02200000 151.04700000
O 136.39500000 130.11600000 148.95300000
Ni 136.39500000 128.02200000 153.14100000
Ni 136.39500000 130.11600000 155.23200000
Ni 138.48900000 128.02200000 155.23200000
Ni 138.48900000 130.11600000 153.14100000
O 138.48900000 128.02200000 153.14100000
O 138.48900000 130.11600000 155.23200000
O 136.39500000 128.02200000 155.23200000
O 136.39500000 130.11600000 153.14100000
Ni 136.39500000 128.02200000 157.32600000
Ni 136.39500000 130.11600000 159.42000000
Ni 138.48900000 128.02200000 159.42000000
Ni 138.48900000 130.11600000 157.32600000
O 138.48900000 128.02200000 157.32600000
O 138.48900000 130.11600000 159.42000000
O 136.39500000 128.02200000 159.42000000
O 136.39500000 130.11600000 157.32600000
Ni 136.39500000 128.02200000 161.51100000
Ni 136.39500000 130.11600000 163.60500000
Ni 138.48900000 128.02200000 163.60500000
Ni 138.48900000 130.11600000 161.51100000
O 138.48900000 128.02200000 161.51100000
O 138.48900000 130.11600000 163.60500000
O 136.39500000 128.02200000 163.60500000
O 136.39500000 130.11600000 161.51100000
Ni 136.39500000 130.11600000 167.79300000
Ni 138.48900000 130.11600000 165.69900000
O 138.48900000 128.02200000 165.69900000
O 138.48900000 130.11600000 167.79300000
O 136.39500000 130.11600000 165.69900000
Ni 136.39500000 134.30100000 130.11600000
Ni 138.48900000 132.20700000 130.11600000
Ni 138.48900000 134.30100000 128.02200000
O 138.48900000 134.30100000 130.11600000
O 136.39500000 132.20700000 130.11600000
Ni 136.39500000 132.20700000 132.20700000
Ni 136.39500000 134.30100000 134.30100000
Ni 138.48900000 132.20700000 134.30100000
Ni 138.48900000 134.30100000 132.20700000
O 138.48900000 132.20700000 132.20700000
O 138.48900000 134.30100000 134.30100000
O 136.39500000 132.20700000 134.30100000
O 136.39500000 134.30100000 132.20700000
Ni 136.39500000 132.20700000 136.39500000
Ni 136.39500000 134.30100000 138.48900000
Ni 138.48900000 132.20700000 138.48900000
Ni 138.48900000 134.30100000 136.39500000
O 138.48900000 132.20700000 136.39500000
O 138.48900000 134.30100000 138.48900000
O 136.39500000 132.20700000 138.48900000
O 136.39500000 134.30100000 136.39500000
Ni 136.39500000 132.20700000 140.58000000
Ni 136.39500000 134.30100000 142.67400000
Ni 138.48900000 132.20700000 142.67400000
Ni 138.48900000 134.30100000 140.58000000
O 138.48900000 132.20700000 140.58000000
O 138.48900000 134.30100000 142.67400000
O 136.39500000 132.20700000 142.67400000
O 136.39500000 134.30100000 140.58000000
Ni 136.39500000 132.20700000 144.76800000
Ni 136.39500000 134.30100000 146.85900000
Ni 138.48900000 132.20700000 146.85900000
Ni 138.48900000 134.30100000 144.76800000
O 138.48900000 132.20700000 144.76800000
O 138.48900000 134.30100000 146.85900000
O 136.39500000 132.20700000 146.85900000
O 136.39500000 134.30100000 144.76800000
Ni 136.39500000 132.20700000 148.95300000
Ni 136.39500000 134.30100000 151.04700000
Ni 138.48900000 132.20700000 151.04700000
Ni 138.48900000 134.30100000 148.95300000
O 138.48900000 132.20700000 148.95300000
O 138.48900000 134.30100000 151.04700000
O 136.39500000 132.20700000 151.04700000
O 136.39500000 134.30100000 148.95300000
Ni 136.39500000 132.20700000 153.14100000
Ni 136.39500000 134.30100000 155.23200000
Ni 138.48900000 132.20700000 155.23200000
Ni 138.48900000 134.30100000 153.14100000
O 138.48900000 132.20700000 153.14100000
O 138.48900000 134.30100000 155.23200000
O 136.39500000 132.20700000 155.23200000
O 136.39500000 134.30100000 153.14100000
Ni 136.39500000 132.20700000 157.32600000
Ni 136.39500000 134.30100000 159.42000000
Ni 138.48900000 132.20700000 159.42000000
Ni 138.48900000 134.30100000 157.32600000
O 138.48900000 132.20700000 157.32600000
O 138.48900000 134.30100000 159.42000000
O 136.39500000 132.20700000 159.42000000
O 136.39500000 134.30100000 157.32600000
Ni 136.39500000 132.20700000 161.51100000
Ni 136.39500000 134.30100000 163.60500000
Ni 138.48900000 132.20700000 163.60500000
Ni 138.48900000 134.30100000 161.51100000
O 138.48900000 132.20700000 161.51100000
O 138.48900000 134.30100000 163.60500000
O 136.39500000 132.20700000 163.60500000
O 136.39500000 134.30100000 161.51100000
Ni 136.39500000 132.20700000 165.69900000
Ni 136.39500000 134.30100000 167.79300000
Ni 138.48900000 132.20700000 167.79300000
Ni 138.48900000 134.30100000 165.69900000
O 138.48900000 132.20700000 165.69900000
O 138.48900000 134.30100000 167.79300000
O 136.39500000 132.20700000 167.79300000
O 136.39500000 134.30100000 165.69900000
Ni 136.39500000 132.20700000 169.88400000
Ni 138.48900000 134.30100000 169.88400000
O 138.48900000 132.20700000 169.88400000
O 138.48900000 134.30100000 171.97800000
O 136.39500000 134.30100000 169.88400000
Ni 136.39500000 138.48900000 125.92800000
Ni 138.48900000 136.39500000 125.92800000
O 138.48900000 138.48900000 125.92800000
Ni 136.39500000 136.39500000 128.02200000
Ni 136.39500000 138.48900000 130.11600000
Ni 138.48900000 136.39500000 130.11600000
Ni 138.48900000 138.48900000 128.02200000
O 138.48900000 136.39500000 128.02200000
O 138.48900000 138.48900000 130.11600000
O 136.39500000 136.39500000 130.11600000
O 136.39500000 138.48900000 128.02200000
Ni 136.39500000 136.39500000 132.20700000
Ni 136.39500000 138.48900000 134.30100000
Ni 138.48900000 136.39500000 134.30100000
Ni 138.48900000 138.48900000 132.20700000
O 138.48900000 136.39500000 132.20700000
O 138.48900000 138.48900000 134.30100000
O 136.39500000 136.39500000 134.30100000
O 136.39500000 138.48900000 132.20700000
Ni 136.39500000 136.39500000 136.39500000
Ni 136.39500000 138.48900000 138.48900000
Ni 138.48900000 136.39500000 138.48900000
Ni 138.48900000 138.48900000 136.39500000
O 138.48900000 136.39500000 136.39500000
O 138.48900000 138.48900000 138.48900000
O 136.39500000 136.39500000 138.48900000
O 136.39500000 138.48900000 136.39500000
Ni 136.39500000 136.39500000 140.58000000
Ni 136.39500000 138.48900000 142.67400000
Ni 138.48900000 136.39500000 142.67400000
Ni 138.48900000 138.48900000 140.58000000
O 138.48900000 136.39500000 140.58000000
O 138.48900000 138.48900000 142.67400000
O 136.39500000 136.39500000 142.67400000
O 136.39500000 138.48900000 140.58000000
Ni 136.39500000 136.39500000 144.76800000
Ni 136.39500000 138.48900000 146.85900000
Ni 138.48900000 136.39500000 146.85900000
Ni 138.48900000 138.48900000 144.76800000
O 138.48900000 136.39500000 144.76800000
O 138.48900000 138.48900000 146.85900000
O 136.39500000 136.39500000 146.85900000
O 136.39500000 138.48900000 144.76800000
Ni 136.39500000 136.39500000 148.95300000
Ni 136.39500000 138.48900000 151.04700000
Ni 138.48900000 136.39500000 151.04700000
Ni 138.48900000 138.48900000 148.95300000
O 138.48900000 136.39500000 148.95300000
O 138.48900000 138.48900000 151.04700000
O 136.39500000 136.39500000 151.04700000
O 136.39500000 138.48900000 148.95300000
Ni 136.39500000 136.39500000 153.14100000
Ni 136.39500000 138.48900000 155.23200000
Ni 138.48900000 136.39500000 155.23200000
Ni 138.48900000 138.48900000 153.14100000
O 138.48900000 136.39500000 153.14100000
O 138.48900000 138.48900000 155.23200000
O 136.39500000 136.39500000 155.23200000
O 136.39500000 138.48900000 153.14100000
Ni 136.39500000 136.39500000 157.32600000
Ni 136.39500000 138.48900000 159.42000000
Ni 138.48900000 136.39500000 159.42000000
Ni 138.48900000 138.48900000 157.32600000
O 138.48900000 136.39500000 157.32600000
O 138.48900000 138.48900000 159.42000000
O 136.39500000 136.39500000 159.42000000
O 136.39500000 138.48900000 157.32600000
Ni 136.39500000 136.39500000 161.51100000
Ni 136.39500000 138.48900000 163.60500000
Ni 138.48900000 136.39500000 163.60500000
Ni 138.48900000 138.48900000 161.51100000
O 138.48900000 136.39500000 161.51100000
O 138.48900000 138.48900000 163.60500000
O 136.39500000 136.39500000 163.60500000
O 136.39500000 138.48900000 161.51100000
Ni 136.39500000 136.39500000 165.69900000
Ni 136.39500000 138.48900000 167.79300000
Ni 138.48900000 136.39500000 167.79300000
Ni 138.48900000 138.48900000 165.69900000
O 138.48900000 136.39500000 165.69900000
O 138.48900000 138.48900000 167.79300000
O 136.39500000 136.39500000 167.79300000
O 136.39500000 138.48900000 165.69900000
Ni 136.39500000 136.39500000 169.88400000
Ni 136.39500000 138.48900000 171.97800000
Ni 138.48900000 136.39500000 171.97800000
Ni 138.48900000 138.48900000 169.88400000
O 138.48900000 136.39500000 169.88400000
O 138.48900000 138.48900000 171.97800000
O 136.39500000 136.39500000 171.97800000
O 136.39500000 138.48900000 169.88400000
Ni 138.48900000 138.48900000 174.07200000
O 138.48900000 136.39500000 174.07200000
O 136.39500000 138.48900000 174.07200000
Ni 136.39500000 142.67400000 125.92800000
Ni 138.48900000 140.58000000 125.92800000
Ni 138.48900000 142.67400000 123.83700000
O 138.48900000 142.67400000 125.92800000
O 136.39500000 140.58000000 125.92800000
Ni 136.39500000 140.58000000 128.02200000
Ni 136.39500000 142.67400000 130.11600000
Ni 138.48900000 140.58000000 130.11600000
Ni 138.48900000 142.67400000 128.02200000
O 138.48900000 140.58000000 128.02200000
O 138.48900000 142.67400000 130.11600000
O 136.39500000 140.58000000 130.11600000
O 136.39500000 142.67400000 128.02200000
Ni 136.39500000 140.58000000 132.20700000
Ni 136.39500000 142.67400000 134.30100000
Ni 138.48900000 140.58000000 134.30100000
Ni 138.48900000 142.67400000 132.20700000
O 138.48900000 140.58000000 132.20700000
O 138.48900000 142.67400000 134.30100000
O 136.39500000 140.58000000 134.30100000
O 136.39500000 142.67400000 132.20700000
Ni 136.39500000 140.58000000 136.39500000
Ni 136.39500000 142.67400000 138.48900000
Ni 138.48900000 140.58000000 138.48900000
Ni 138.48900000 142.67400000 136.39500000
O 138.48900000 140.58000000 136.39500000
O 138.48900000 142.67400000 138.48900000
O 136.39500000 140.58000000 138.48900000
O 136.39500000 142.67400000 136.39500000
Ni 136.39500000 140.58000000 140.58000000
Ni 136.39500000 142.67400000 142.67400000
Ni 138.48900000 140.58000000 142.67400000
Ni 138.48900000 142.67400000 140.58000000
O 138.48900000 140.58000000 140.58000000
O 138.48900000 142.67400000 142.67400000
O 136.39500000 140.58000000 142.67400000
O 136.39500000 142.67400000 140.58000000
Ni 136.39500000 140.58000000 144.76800000
Ni 136.39500000 142.67400000 146.85900000
Ni 138.48900000 140.58000000 146.85900000
Ni 138.48900000 142.67400000 144.76800000
O 138.48900000 140.58000000 144.76800000
O 138.48900000 142.67400000 146.85900000
O 136.39500000 140.58000000 146.85900000
O 136.39500000 142.67400000 144.76800000
Ni 136.39500000 140.58000000 148.95300000
Ni 136.39500000 142.67400000 151.04700000
Ni 138.48900000 140.58000000 151.04700000
Ni 138.48900000 142.67400000 148.95300000
O 138.48900000 140.58000000 148.95300000
O 138.48900000 142.67400000 151.04700000
O 136.39500000 140.58000000 151.04700000
O 136.39500000 142.67400000 148.95300000
Ni 136.39500000 140.58000000 153.14100000
Ni 136.39500000 142.67400000 155.23200000
Ni 138.48900000 140.58000000 155.23200000
Ni 138.48900000 142.67400000 153.14100000
O 138.48900000 140.58000000 153.14100000
O 138.48900000 142.67400000 155.23200000
O 136.39500000 140.58000000 155.23200000
O 136.39500000 142.67400000 153.14100000
Ni 136.39500000 140.58000000 157.32600000
Ni 136.39500000 142.67400000 159.42000000
Ni 138.48900000 140.58000000 159.42000000
Ni 138.48900000 142.67400000 157.32600000
O 138.48900000 140.58000000 157.32600000
O 138.48900000 142.67400000 159.42000000
O 136.39500000 140.58000000 159.42000000
O 136.39500000 142.67400000 157.32600000
Ni 136.39500000 140.58000000 161.51100000
Ni 136.39500000 142.67400000 163.60500000
Ni 138.48900000 140.58000000 163.60500000
Ni 138.48900000 142.67400000 161.51100000
O 138.48900000 140.58000000 161.51100000
O 138.48900000 142.67400000 163.60500000
O 136.39500000 140.58000000 163.60500000
O 136.39500000 142.67400000 161.51100000
Ni 136.39500000 140.58000000 165.69900000
Ni 136.39500000 142.67400000 167.79300000
Ni 138.48900000 140.58000000 167.79300000
Ni 138.48900000 142.67400000 165.69900000
O 138.48900000 140.58000000 165.69900000
O 138.48900000 142.67400000 167.79300000
O 136.39500000 140.58000000 167.79300000
O 136.39500000 142.67400000 165.69900000
Ni 136.39500000 140.58000000 169.88400000
Ni 136.39500000 142.67400000 171.97800000
Ni 138.48900000 140.58000000 171.97800000
Ni 138.48900000 142.67400000 169.88400000
O 138.48900000 140.58000000 169.88400000
O 138.48900000 142.67400000 171.97800000
O 136.39500000 140.58000000 171.97800000
O 136.39500000 142.67400000 169.88400000
Ni 136.39500000 140.58000000 174.07200000
Ni 138.48900000 142.67400000 174.07200000
O 138.48900000 140.58000000 174.07200000
O 138.48900000 142.67400000 176.16300000
O 136.39500000 142.67400000 174.07200000
Ni 136.39500000 144.76800000 123.83700000
Ni 136.39500000 146.85900000 125.92800000
Ni 138.48900000 144.76800000 125.92800000
Ni 138.48900000 146.85900000 123.83700000
O 138.48900000 144.76800000 123.83700000
O 138.48900000 146.85900000 125.92800000
O 136.39500000 144.76800000 125.92800000
O 136.39500000 146.85900000 123.83700000
Ni 136.39500000 144.76800000 128.02200000
Ni 136.39500000 146.85900000 130.11600000
Ni 138.48900000 144.76800000 130.11600000
Ni 138.48900000 146.85900000 128.02200000
O 138.48900000 144.76800000 128.02200000
O 138.48900000 146.85900000 130.11600000
O 136.39500000 144.76800000 130.11600000
O 136.39500000 146.85900000 128.02200000
Ni 136.39500000 144.76800000 132.20700000
Ni 136.39500000 146.85900000 134.30100000
Ni 138.48900000 144.76800000 134.30100000
Ni 138.48900000 146.85900000 132.20700000
O 138.48900000 144.76800000 132.20700000
O 138.48900000 146.85900000 134.30100000
O 136.39500000 144.76800000 134.30100000
O 136.39500000 146.85900000 132.20700000
Ni 136.39500000 144.76800000 136.39500000
Ni 136.39500000 146.85900000 138.48900000
Ni 138.48900000 144.76800000 138.48900000
Ni 138.48900000 146.85900000 136.39500000
O 138.48900000 144.76800000 136.39500000
O 138.48900000 146.85900000 138.48900000
O 136.39500000 144.76800000 138.48900000
O 136.39500000 146.85900000 136.39500000
Ni 136.39500000 144.76800000 140.58000000
Ni 136.39500000 146.85900000 142.67400000
Ni 138.48900000 144.76800000 142.67400000
Ni 138.48900000 146.85900000 140.58000000
O 138.48900000 144.76800000 140.58000000
O 138.48900000 146.85900000 142.67400000
O 136.39500000 144.76800000 142.67400000
O 136.39500000 146.85900000 140.58000000
Ni 136.39500000 144.76800000 144.76800000
Ni 136.39500000 146.85900000 146.85900000
Ni 138.48900000 144.76800000 146.85900000
Ni 138.48900000 146.85900000 144.76800000
O 138.48900000 144.76800000 144.76800000
O 138.48900000 146.85900000 146.85900000
O 136.39500000 144.76800000 146.85900000
O 136.39500000 146.85900000 144.76800000
Ni 136.39500000 144.76800000 148.95300000
Ni 136.39500000 146.85900000 151.04700000
Ni 138.48900000 144.76800000 151.04700000
Ni 138.48900000 146.85900000 148.95300000
O 138.48900000 144.76800000 148.95300000
O 138.48900000 146.85900000 151.04700000
O 136.39500000 144.76800000 151.04700000
O 136.39500000 146.85900000 148.95300000
Ni 136.39500000 144.76800000 153.14100000
Ni 136.39500000 146.85900000 155.23200000
Ni 138.48900000 144.76800000 155.23200000
Ni 138.48900000 146.85900000 153.14100000
O 138.48900000 144.76800000 153.14100000
O 138.48900000 146.85900000 155.23200000
O 136.39500000 144.76800000 155.23200000
O 136.39500000 146.85900000 153.14100000
Ni 136.39500000 144.76800000 157.32600000
Ni 136.39500000 146.85900000 159.42000000
Ni 138.48900000 144.76800000 159.42000000
Ni 138.48900000 146.85900000 157.32600000
O 138.48900000 144.76800000 157.32600000
O 138.48900000 146.85900000 159.42000000
O 136.39500000 144.76800000 159.42000000
O 136.39500000 146.85900000 157.32600000
Ni 136.39500000 144.76800000 161.51100000
Ni 136.39500000 146.85900000 163.60500000
Ni 138.48900000 144.76800000 163.60500000
Ni 138.48900000 146.85900000 161.51100000
O 138.48900000 144.76800000 161.51100000
O 138.48900000 146.85900000 163.60500000
O 136.39500000 144.76800000 163.60500000
O 136.39500000 146.85900000 161.51100000
Ni 136.39500000 144.76800000 165.69900000
Ni 136.39500000 146.85900000 167.79300000
Ni 138.48900000 144.76800000 167.79300000
Ni 138.48900000 146.85900000 165.69900000
O 138.48900000 144.76800000 165.69900000
O 138.48900000 146.85900000 167.79300000
O 136.39500000 144.76800000 167.79300000
O 136.39500000 146.85900000 165.69900000
Ni 136.39500000 144.76800000 169.88400000
Ni 136.39500000 146.85900000 171.97800000
Ni 138.48900000 144.76800000 171.97800000
Ni 138.48900000 146.85900000 169.88400000
O 138.48900000 144.76800000 169.88400000
O 138.48900000 146.85900000 171.97800000
O 136.39500000 144.76800000 171.97800000
O 136.39500000 146.85900000 169.88400000
Ni 136.39500000 144.76800000 174.07200000
Ni 136.39500000 146.85900000 176.16300000
Ni 138.48900000 144.76800000 176.16300000
Ni 138.48900000 146.85900000 174.07200000
O 138.48900000 144.76800000 174.07200000
O 138.48900000 146.85900000 176.16300000
O 136.39500000 144.76800000 176.16300000
O 136.39500000 146.85900000 174.07200000
Ni 136.39500000 148.95300000 123.83700000
Ni 136.39500000 151.04700000 125.92800000
Ni 138.48900000 148.95300000 125.92800000
Ni 138.48900000 151.04700000 123.83700000
O 138.48900000 148.95300000 123.83700000
O 138.48900000 151.04700000 125.92800000
O 136.39500000 148.95300000 125.92800000
O 136.39500000 151.04700000 123.83700000
Ni 136.39500000 148.95300000 128.02200000
Ni 136.39500000 151.04700000 130.11600000
Ni 138.48900000 148.95300000 130.11600000
Ni 138.48900000 151.04700000 128.02200000
O 138.48900000 148.95300000 128.02200000
O 138.48900000 151.04700000 130.11600000
O 136.39500000 148.95300000 130.11600000
O 136.39500000 151.04700000 128.02200000
Ni 136.39500000 148.95300000 132.20700000
Ni 136.39500000 151.04700000 134.30100000
Ni 138.48900000 148.95300000 134.30100000
Ni 138.48900000 151.04700000 132.20700000
O 138.48900000 148.95300000 132.20700000
O 138.48900000 151.04700000 134.30100000
O 136.39500000 148.95300000 134.30100000
O 136.39500000 151.04700000 132.20700000
Ni 136.39500000 148.95300000 136.39500000
Ni 136.39500000 151.04700000 138.48900000
Ni 138.48900000 148.95300000 138.48900000
Ni 138.48900000 151.04700000 136.39500000
O 138.48900000 148.95300000 136.39500000
O 138.48900000 151.04700000 138.48900000
O 136.39500000 148.95300000 138.48900000
O 136.39500000 151.04700000 136.39500000
Ni 136.39500000 148.95300000 140.58000000
Ni 136.39500000 151.04700000 142.67400000
Ni 138.48900000 148.95300000 142.67400000
Ni 138.48900000 151.04700000 140.58000000
O 138.48900000 148.95300000 140.58000000
O 138.48900000 151.04700000 142.67400000
O 136.39500000 148.95300000 142.67400000
O 136.39500000 151.04700000 140.58000000
Ni 136.39500000 148.95300000 144.76800000
Ni 136.39500000 151.04700000 146.85900000
Ni 138.48900000 148.95300000 146.85900000
Ni 138.48900000 151.04700000 144.76800000
O 138.48900000 148.95300000 144.76800000
O 138.48900000 151.04700000 146.85900000
O 136.39500000 148.95300000 146.85900000
O 136.39500000 151.04700000 144.76800000
Ni 136.39500000 148.95300000 148.95300000
Ni 136.39500000 151.04700000 151.04700000
Ni 138.48900000 148.95300000 151.04700000
Ni 138.48900000 151.04700000 148.95300000
O 138.48900000 148.95300000 148.95300000
O 138.48900000 151.04700000 151.04700000
O 136.39500000 148.95300000 151.04700000
O 136.39500000 151.04700000 148.95300000
Ni 136.39500000 148.95300000 153.14100000
Ni 136.39500000 151.04700000 155.23200000
Ni 138.48900000 148.95300000 155.23200000
Ni 138.48900000 151.04700000 153.14100000
O 138.48900000 148.95300000 153.14100000
O 138.48900000 151.04700000 155.23200000
O 136.39500000 148.95300000 155.23200000
O 136.39500000 151.04700000 153.14100000
Ni 136.39500000 148.95300000 157.32600000
Ni 136.39500000 151.04700000 159.42000000
Ni 138.48900000 148.95300000 159.42000000
Ni 138.48900000 151.04700000 157.32600000
O 138.48900000 148.95300000 157.32600000
O 138.48900000 151.04700000 159.42000000
O 136.39500000 148.95300000 159.42000000
O 136.39500000 151.04700000 157.32600000
Ni 136.39500000 148.95300000 161.51100000
Ni 136.39500000 151.04700000 163.60500000
Ni 138.48900000 148.95300000 163.60500000
Ni 138.48900000 151.04700000 161.51100000
O 138.48900000 148.95300000 161.51100000
O 138.48900000 151.04700000 163.60500000
O 136.39500000 148.95300000 163.60500000
O 136.39500000 151.04700000 161.51100000
Ni 136.39500000 148.95300000 165.69900000
Ni 136.39500000 151.04700000 167.79300000
Ni 138.48900000 148.95300000 167.79300000
Ni 138.48900000 151.04700000 165.69900000
O 138.48900000 148.95300000 165.69900000
O 138.48900000 151.04700000 167.79300000
O 136.39500000 148.95300000 167.79300000
O 136.39500000 151.04700000 165.69900000
Ni 136.39500000 148.95300000 169.88400000
Ni 136.39500000 151.04700000 171.97800000
Ni 138.48900000 148.95300000 171.97800000
Ni 138.48900000 151.04700000 169.88400000
O 138.48900000 148.95300000 169.88400000
O 138.48900000 151.04700000 171.97800000
O 136.39500000 148.95300000 171.97800000
O 136.39500000 151.04700000 169.88400000
Ni 136.39500000 148.95300000 174.07200000
Ni 136.39500000 151.04700000 176.16300000
Ni 138.48900000 148.95300000 176.16300000
Ni 138.48900000 151.04700000 174.07200000
O 138.48900000 148.95300000 174.07200000
O 138.48900000 151.04700000 176.16300000
O 136.39500000 148.95300000 176.16300000
O 136.39500000 151.04700000 174.07200000
Ni 136.39500000 153.14100000 123.83700000
Ni 136.39500000 155.23200000 125.92800000
Ni 138.48900000 153.14100000 125.92800000
Ni 138.48900000 155.23200000 123.83700000
O 138.48900000 153.14100000 123.83700000
O 138.48900000 155.23200000 125.92800000
O 136.39500000 153.14100000 125.92800000
O 136.39500000 155.23200000 123.83700000
Ni 136.39500000 153.14100000 128.02200000
Ni 136.39500000 155.23200000 130.11600000
Ni 138.48900000 153.14100000 130.11600000
Ni 138.48900000 155.23200000 128.02200000
O 138.48900000 153.14100000 128.02200000
O 138.48900000 155.23200000 130.11600000
O 136.39500000 153.14100000 130.11600000
O 136.39500000 155.23200000 128.02200000
Ni 136.39500000 153.14100000 132.20700000
Ni 136.39500000 155.23200000 134.30100000
Ni 138.48900000 153.14100000 134.30100000
Ni 138.48900000 155.23200000 132.20700000
O 138.48900000 153.14100000 132.20700000
O 138.48900000 155.23200000 134.30100000
O 136.39500000 153.14100000 134.30100000
O 136.39500000 155.23200000 132.20700000
Ni 136.39500000 153.14100000 136.39500000
Ni 136.39500000 155.23200000 138.48900000
Ni 138.48900000 153.14100000 138.48900000
Ni 138.48900000 155.23200000 136.39500000
O 138.48900000 153.14100000 136.39500000
O 138.48900000 155.23200000 138.48900000
O 136.39500000 153.14100000 138.48900000
O 136.39500000 155.23200000 136.39500000
Ni 136.39500000 153.14100000 140.58000000
Ni 136.39500000 155.23200000 142.67400000
Ni 138.48900000 153.14100000 142.67400000
Ni 138.48900000 155.23200000 140.58000000
O 138.48900000 153.14100000 140.58000000
O 138.48900000 155.23200000 142.67400000
O 136.39500000 153.14100000 142.67400000
O 136.39500000 155.23200000 140.58000000
Ni 136.39500000 153.14100000 144.76800000
Ni 136.39500000 155.23200000 146.85900000
Ni 138.48900000 153.14100000 146.85900000
Ni 138.48900000 155.23200000 144.76800000
O 138.48900000 153.14100000 144.76800000
O 138.48900000 155.23200000 146.85900000
O 136.39500000 153.14100000 146.85900000
O 136.39500000 155.23200000 144.76800000
Ni 136.39500000 153.14100000 148.95300000
Ni 136.39500000 155.23200000 151.04700000
Ni 138.48900000 153.14100000 151.04700000
Ni 138.48900000 155.23200000 148.95300000
O 138.48900000 153.14100000 148.95300000
O 138.48900000 155.23200000 151.04700000
O 136.39500000 153.14100000 151.04700000
O 136.39500000 155.23200000 148.95300000
Ni 136.39500000 153.14100000 153.14100000
Ni 136.39500000 155.23200000 155.23200000
Ni 138.48900000 153.14100000 155.23200000
Ni 138.48900000 155.23200000 153.14100000
O 138.48900000 153.14100000 153.14100000
O 138.48900000 155.23200000 155.23200000
O 136.39500000 153.14100000 155.23200000
O 136.39500000 155.23200000 153.14100000
Ni 136.39500000 153.14100000 157.32600000
Ni 136.39500000 155.23200000 159.42000000
Ni 138.48900000 153.14100000 159.42000000
Ni 138.48900000 155.23200000 157.32600000
O 138.48900000 153.14100000 157.32600000
O 138.48900000 155.23200000 159.42000000
O 136.39500000 153.14100000 159.42000000
O 136.39500000 155.23200000 157.32600000
Ni 136.39500000 153.14100000 161.51100000
Ni 136.39500000 155.23200000 163.60500000
Ni 138.48900000 153.14100000 163.60500000
Ni 138.48900000 155.23200000 161.51100000
O 138.48900000 153.14100000 161.51100000
O 138.48900000 155.23200000 163.60500000
O 136.39500000 153.14100000 163.60500000
O 136.39500000 155.23200000 161.51100000
Ni 136.39500000 153.14100000 165.69900000
Ni 136.39500000 155.23200000 167.79300000
Ni 138.48900000 153.14100000 167.79300000
Ni 138.48900000 155.23200000 165.69900000
O 138.48900000 153.14100000 165.69900000
O 138.48900000 155.23200000 167.79300000
O 136.39500000 153.14100000 167.79300000
O 136.39500000 155.23200000 165.69900000
Ni 136.39500000 153.14100000 169.88400000
Ni 136.39500000 155.23200000 171.97800000
Ni 138.48900000 153.14100000 171.97800000
Ni 138.48900000 155.23200000 169.88400000
O 138.48900000 153.14100000 169.88400000
O 138.48900000 155.23200000 171.97800000
O 136.39500000 153.14100000 171.97800000
O 136.39500000 155.23200000 169.88400000
Ni 136.39500000 153.14100000 174.07200000
Ni 136.39500000 155.23200000 176.16300000
Ni 138.48900000 153.14100000 176.16300000
Ni 138.48900000 155.23200000 174.07200000
O 138.48900000 153.14100000 174.07200000
O 138.48900000 155.23200000 176.16300000
O 136.39500000 153.14100000 176.16300000
O 136.39500000 155.23200000 174.07200000
Ni 136.39500000 159.42000000 125.92800000
Ni 138.48900000 157.32600000 125.92800000
O 138.48900000 157.32600000 123.83700000
O 138.48900000 159.42000000 125.92800000
O 136.39500000 157.32600000 125.92800000
Ni 136.39500000 157.32600000 128.02200000
Ni 136.39500000 159.42000000 130.11600000
Ni 138.48900000 157.32600000 130.11600000
Ni 138.48900000 159.42000000 128.02200000
O 138.48900000 157.32600000 128.02200000
O 138.48900000 159.42000000 130.11600000
O 136.39500000 157.32600000 130.11600000
O 136.39500000 159.42000000 128.02200000
Ni 136.39500000 157.32600000 132.20700000
Ni 136.39500000 159.42000000 134.30100000
Ni 138.48900000 157.32600000 134.30100000
Ni 138.48900000 159.42000000 132.20700000
O 138.48900000 157.32600000 132.20700000
O 138.48900000 159.42000000 134.30100000
O 136.39500000 157.32600000 134.30100000
O 136.39500000 159.42000000 132.20700000
Ni 136.39500000 157.32600000 136.39500000
Ni 136.39500000 159.42000000 138.48900000
Ni 138.48900000 157.32600000 138.48900000
Ni 138.48900000 159.42000000 136.39500000
O 138.48900000 157.32600000 136.39500000
O 138.48900000 159.42000000 138.48900000
O 136.39500000 157.32600000 138.48900000
O 136.39500000 159.42000000 136.39500000
Ni 136.39500000 157.32600000 140.58000000
Ni 136.39500000 159.42000000 142.67400000
Ni 138.48900000 157.32600000 142.67400000
Ni 138.48900000 159.42000000 140.58000000
O 138.48900000 157.32600000 140.58000000
O 138.48900000 159.42000000 142.67400000
O 136.39500000 157.32600000 142.67400000
O 136.39500000 159.42000000 140.58000000
Ni 136.39500000 157.32600000 144.76800000
Ni 136.39500000 159.42000000 146.85900000
Ni 138.48900000 157.32600000 146.85900000
Ni 138.48900000 159.42000000 144.76800000
O 138.48900000 157.32600000 144.76800000
O 138.48900000 159.42000000 146.85900000
O 136.39500000 157.32600000 146.85900000
O 136.39500000 159.42000000 144.76800000
Ni 136.39500000 157.32600000 148.95300000
Ni 136.39500000 159.42000000 151.04700000
Ni 138.48900000 157.32600000 151.04700000
Ni 138.48900000 159.42000000 148.95300000
O 138.48900000 157.32600000 148.95300000
O 138.48900000 159.42000000 151.04700000
O 136.39500000 157.32600000 151.04700000
O 136.39500000 159.42000000 148.95300000
Ni 136.39500000 157.32600000 153.14100000
Ni 136.39500000 159.42000000 155.23200000
Ni 138.48900000 157.32600000 155.23200000
Ni 138.48900000 159.42000000 153.14100000
O 138.48900000 157.32600000 153.14100000
O 138.48900000 159.42000000 155.23200000
O 136.39500000 157.32600000 155.23200000
O 136.39500000 159.42000000 153.14100000
Ni 136.39500000 157.32600000 157.32600000
Ni 136.39500000 159.42000000 159.42000000
Ni 138.48900000 157.32600000 159.42000000
Ni 138.48900000 159.42000000 157.32600000
O 138.48900000 157.32600000 157.32600000
O 138.48900000 159.42000000 159.42000000
O 136.39500000 157.32600000 159.42000000
O 136.39500000 159.42000000 157.32600000
Ni 136.39500000 157.32600000 161.51100000
Ni 136.39500000 159.42000000 163.60500000
Ni 138.48900000 157.32600000 163.60500000
Ni 138.48900000 159.42000000 161.51100000
O 138.48900000 157.32600000 161.51100000
O 138.48900000 159.42000000 163.60500000
O 136.39500000 157.32600000 163.60500000
O 136.39500000 159.42000000 161.51100000
Ni 136.39500000 157.32600000 165.69900000
Ni 136.39500000 159.42000000 167.79300000
Ni 138.48900000 157.32600000 167.79300000
Ni 138.48900000 159.42000000 165.69900000
O 138.48900000 157.32600000 165.69900000
O 138.48900000 159.42000000 167.79300000
O 136.39500000 157.32600000 167.79300000
O 136.39500000 159.42000000 165.69900000
Ni 136.39500000 157.32600000 169.88400000
Ni 136.39500000 159.42000000 171.97800000
Ni 138.48900000 157.32600000 171.97800000
Ni 138.48900000 159.42000000 169.88400000
O 138.48900000 157.32600000 169.88400000
O 138.48900000 159.42000000 171.97800000
O 136.39500000 157.32600000 171.97800000
O 136.39500000 159.42000000 169.88400000
Ni 136.39500000 157.32600000 174.07200000
Ni 138.48900000 157.32600000 176.16300000
Ni 138.48900000 159.42000000 174.07200000
O 138.48900000 157.32600000 174.07200000
O 136.39500000 159.42000000 174.07200000
Ni 138.48900000 161.51100000 125.92800000
O 138.48900000 163.60500000 125.92800000
O 136.39500000 161.51100000 125.92800000
Ni 136.39500000 161.51100000 128.02200000
Ni 136.39500000 163.60500000 130.11600000
Ni 138.48900000 161.51100000 130.11600000
Ni 138.48900000 163.60500000 128.02200000
O 138.48900000 161.51100000 128.02200000
O 138.48900000 163.60500000 130.11600000
O 136.39500000 161.51100000 130.11600000
O 136.39500000 163.60500000 128.02200000
Ni 136.39500000 161.51100000 132.20700000
Ni 136.39500000 163.60500000 134.30100000
Ni 138.48900000 161.51100000 134.30100000
Ni 138.48900000 163.60500000 132.20700000
O 138.48900000 161.51100000 132.20700000
O 138.48900000 163.60500000 134.30100000
O 136.39500000 161.51100000 134.30100000
O 136.39500000 163.60500000 132.20700000
Ni 136.39500000 161.51100000 136.39500000
Ni 136.39500000 163.60500000 138.48900000
Ni 138.48900000 161.51100000 138.48900000
Ni 138.48900000 163.60500000 136.39500000
O 138.48900000 161.51100000 136.39500000
O 138.48900000 163.60500000 138.48900000
O 136.39500000 161.51100000 138.48900000
O 136.39500000 163.60500000 136.39500000
Ni 136.39500000 161.51100000 140.58000000
Ni 136.39500000 163.60500000 142.67400000
Ni 138.48900000 161.51100000 142.67400000
Ni 138.48900000 163.60500000 140.58000000
O 138.48900000 161.51100000 140.58000000
O 138.48900000 163.60500000 142.67400000
O 136.39500000 161.51100000 142.67400000
O 136.39500000 163.60500000 140.58000000
Ni 136.39500000 161.51100000 144.76800000
Ni 136.39500000 163.60500000 146.85900000
Ni 138.48900000 161.51100000 146.85900000
Ni 138.48900000 163.60500000 144.76800000
O 138.48900000 161.51100000 144.76800000
O 138.48900000 163.60500000 146.85900000
O 136.39500000 161.51100000 146.85900000
O 136.39500000 163.60500000 144.76800000
Ni 136.39500000 161.51100000 148.95300000
Ni 136.39500000 163.60500000 151.04700000
Ni 138.48900000 161.51100000 151.04700000
Ni 138.48900000 163.60500000 148.95300000
O 138.48900000 161.51100000 148.95300000
O 138.48900000 163.60500000 151.04700000
O 136.39500000 161.51100000 151.04700000
O 136.39500000 163.60500000 148.95300000
Ni 136.39500000 161.51100000 153.14100000
Ni 136.39500000 163.60500000 155.23200000
Ni 138.48900000 161.51100000 155.23200000
Ni 138.48900000 163.60500000 153.14100000
O 138.48900000 161.51100000 153.14100000
O 138.48900000 163.60500000 155.23200000
O 136.39500000 161.51100000 155.23200000
O 136.39500000 163.60500000 153.14100000
Ni 136.39500000 161.51100000 157.32600000
Ni 136.39500000 163.60500000 159.42000000
Ni 138.48900000 161.51100000 159.42000000
Ni 138.48900000 163.60500000 157.32600000
O 138.48900000 161.51100000 157.32600000
O 138.48900000 163.60500000 159.42000000
O 136.39500000 161.51100000 159.42000000
O 136.39500000 163.60500000 157.32600000
Ni 136.39500000 161.51100000 161.51100000
Ni 136.39500000 163.60500000 163.60500000
Ni 138.48900000 161.51100000 163.60500000
Ni 138.48900000 163.60500000 161.51100000
O 138.48900000 161.51100000 161.51100000
O 138.48900000 163.60500000 163.60500000
O 136.39500000 161.51100000 163.60500000
O 136.39500000 163.60500000 161.51100000
Ni 136.39500000 161.51100000 165.69900000
Ni 136.39500000 163.60500000 167.79300000
Ni 138.48900000 161.51100000 167.79300000
Ni 138.48900000 163.60500000 165.69900000
O 138.48900000 161.51100000 165.69900000
O 138.48900000 163.60500000 167.79300000
O 136.39500000 161.51100000 167.79300000
O 136.39500000 163.60500000 165.69900000
Ni 136.39500000 161.51100000 169.88400000
Ni 136.39500000 163.60500000 171.97800000
Ni 138.48900000 161.51100000 171.97800000
Ni 138.48900000 163.60500000 169.88400000
O 138.48900000 161.51100000 169.88400000
O 138.48900000 163.60500000 171.97800000
O 136.39500000 161.51100000 171.97800000
O 136.39500000 163.60500000 169.88400000
Ni 136.39500000 161.51100000 174.07200000
Ni 138.48900000 163.60500000 174.07200000
O 138.48900000 161.51100000 174.07200000
Ni 136.39500000 167.79300000 130.11600000
Ni 138.48900000 165.69900000 130.11600000
O 138.48900000 165.69900000 128.02200000
O 138.48900000 167.79300000 130.11600000
O 136.39500000 165.69900000 130.11600000
Ni 136.39500000 165.69900000 132.20700000
Ni 136.39500000 167.79300000 134.30100000
Ni 138.48900000 165.69900000 134.30100000
Ni 138.48900000 167.79300000 132.20700000
O 138.48900000 165.69900000 132.20700000
O 138.48900000 167.79300000 134.30100000
O 136.39500000 165.69900000 134.30100000
O 136.39500000 167.79300000 132.20700000
Ni 136.39500000 165.69900000 136.39500000
Ni 136.39500000 167.79300000 138.48900000
Ni 138.48900000 165.69900000 138.48900000
Ni 138.48900000 167.79300000 136.39500000
O 138.48900000 165.69900000 136.39500000
O 138.48900000 167.79300000 138.48900000
O 136.39500000 165.69900000 138.48900000
O 136.39500000 167.79300000 136.39500000
Ni 136.39500000 165.69900000 140.58000000
Ni 136.39500000 167.79300000 142.67400000
Ni 138.48900000 165.69900000 142.67400000
Ni 138.48900000 167.79300000 140.58000000
O 138.48900000 165.69900000 140.58000000
O 138.48900000 167.79300000 142.67400000
O 136.39500000 165.69900000 142.67400000
O 136.39500000 167.79300000 140.58000000
Ni 136.39500000 165.69900000 144.76800000
Ni 136.39500000 167.79300000 146.85900000
Ni 138.48900000 165.69900000 146.85900000
Ni 138.48900000 167.79300000 144.76800000
O 138.48900000 165.69900000 144.76800000
O 138.48900000 167.79300000 146.85900000
O 136.39500000 165.69900000 146.85900000
O 136.39500000 167.79300000 144.76800000
Ni 136.39500000 165.69900000 148.95300000
Ni 136.39500000 167.79300000 151.04700000
Ni 138.48900000 165.69900000 151.04700000
Ni 138.48900000 167.79300000 148.95300000
O 138.48900000 165.69900000 148.95300000
O 138.48900000 167.79300000 151.04700000
O 136.39500000 165.69900000 151.04700000
O 136.39500000 167.79300000 148.95300000
Ni 136.39500000 165.69900000 153.14100000
Ni 136.39500000 167.79300000 155.23200000
Ni 138.48900000 165.69900000 155.23200000
Ni 138.48900000 167.79300000 153.14100000
O 138.48900000 165.69900000 153.14100000
O 138.48900000 167.79300000 155.23200000
O 136.39500000 165.69900000 155.23200000
O 136.39500000 167.79300000 153.14100000
Ni 136.39500000 165.69900000 157.32600000
Ni 136.39500000 167.79300000 159.42000000
Ni 138.48900000 165.69900000 159.42000000
Ni 138.48900000 167.79300000 157.32600000
O 138.48900000 165.69900000 157.32600000
O 138.48900000 167.79300000 159.42000000
O 136.39500000 165.69900000 159.42000000
O 136.39500000 167.79300000 157.32600000
Ni 136.39500000 165.69900000 161.51100000
Ni 136.39500000 167.79300000 163.60500000
Ni 138.48900000 165.69900000 163.60500000
Ni 138.48900000 167.79300000 161.51100000
O 138.48900000 165.69900000 161.51100000
O 138.48900000 167.79300000 163.60500000
O 136.39500000 165.69900000 163.60500000
O 136.39500000 167.79300000 161.51100000
Ni 136.39500000 165.69900000 165.69900000
Ni 136.39500000 167.79300000 167.79300000
Ni 138.48900000 165.69900000 167.79300000
Ni 138.48900000 167.79300000 165.69900000
O 138.48900000 165.69900000 165.69900000
O 138.48900000 167.79300000 167.79300000
O 136.39500000 165.69900000 167.79300000
O 136.39500000 167.79300000 165.69900000
Ni 136.39500000 165.69900000 169.88400000
Ni 138.48900000 165.69900000 171.97800000
Ni 138.48900000 167.79300000 169.88400000
O 138.48900000 165.69900000 169.88400000
O 136.39500000 167.79300000 169.88400000
Ni 136.39500000 169.88400000 132.20700000
Ni 138.48900000 169.88400000 134.30100000
O 138.48900000 169.88400000 132.20700000
O 138.48900000 171.97800000 134.30100000
O 136.39500000 169.88400000 134.30100000
Ni 136.39500000 169.88400000 136.39500000
Ni 136.39500000 171.97800000 138.48900000
Ni 138.48900000 169.88400000 138.48900000
Ni 138.48900000 171.97800000 136.39500000
O 138.48900000 169.88400000 136.39500000
O 138.48900000 171.97800000 138.48900000
O 136.39500000 169.88400000 138.48900000
O 136.39500000 171.97800000 136.39500000
Ni 136.39500000 169.88400000 140.58000000
Ni 136.39500000 171.97800000 142.67400000
Ni 138.48900000 169.88400000 142.67400000
Ni 138.48900000 171.97800000 140.58000000
O 138.48900000 169.88400000 140.58000000
O 138.48900000 171.97800000 142.67400000
O 136.39500000 169.88400000 142.67400000
O 136.39500000 171.97800000 140.58000000
Ni 136.39500000 169.88400000 144.76800000
Ni 136.39500000 171.97800000 146.85900000
Ni 138.48900000 169.88400000 146.85900000
Ni 138.48900000 171.97800000 144.76800000
O 138.48900000 169.88400000 144.76800000
O 138.48900000 171.97800000 146.85900000
O 136.39500000 169.88400000 146.85900000
O 136.39500000 171.97800000 144.76800000
Ni 136.39500000 169.88400000 148.95300000
Ni 136.39500000 171.97800000 151.04700000
Ni 138.48900000 169.88400000 151.04700000
Ni 138.48900000 171.97800000 148.95300000
O 138.48900000 169.88400000 148.95300000
O 138.48900000 171.97800000 151.04700000
O 136.39500000 169.88400000 151.04700000
O 136.39500000 171.97800000 148.95300000
Ni 136.39500000 169.88400000 153.14100000
Ni 136.39500000 171.97800000 155.23200000
Ni 138.48900000 169.88400000 155.23200000
Ni 138.48900000 171.97800000 153.14100000
O 138.48900000 169.88400000 153.14100000
O 138.48900000 171.97800000 155.23200000
O 136.39500000 169.88400000 155.23200000
O 136.39500000 171.97800000 153.14100000
Ni 136.39500000 169.88400000 157.32600000
Ni 136.39500000 171.97800000 159.42000000
Ni 138.48900000 169.88400000 159.42000000
Ni 138.48900000 171.97800000 157.32600000
O 138.48900000 169.88400000 157.32600000
O 138.48900000 171.97800000 159.42000000
O 136.39500000 169.88400000 159.42000000
O 136.39500000 171.97800000 157.32600000
Ni 136.39500000 169.88400000 161.51100000
Ni 136.39500000 171.97800000 163.60500000
Ni 138.48900000 169.88400000 163.60500000
Ni 138.48900000 171.97800000 161.51100000
O 138.48900000 169.88400000 161.51100000
O 138.48900000 171.97800000 163.60500000
O 136.39500000 169.88400000 163.60500000
O 136.39500000 171.97800000 161.51100000
Ni 136.39500000 169.88400000 165.69900000
Ni 138.48900000 169.88400000 167.79300000
Ni 138.48900000 171.97800000 165.69900000
O 138.48900000 169.88400000 165.69900000
O 136.39500000 169.88400000 167.79300000
Ni 138.48900000 174.07200000 138.48900000
O 138.48900000 174.07200000 136.39500000
O 136.39500000 174.07200000 138.48900000
Ni 136.39500000 174.07200000 140.58000000
Ni 138.48900000 174.07200000 142.67400000
O 138.48900000 174.07200000 140.58000000
O 138.48900000 176.16300000 142.67400000
O 136.39500000 174.07200000 142.67400000
Ni 136.39500000 174.07200000 144.76800000
Ni 136.39500000 176.16300000 146.85900000
Ni 138.48900000 174.07200000 146.85900000
Ni 138.48900000 176.16300000 144.76800000
O 138.48900000 174.07200000 144.76800000
O 138.48900000 176.16300000 146.85900000
O 136.39500000 174.07200000 146.85900000
O 136.39500000 176.16300000 144.76800000
Ni 136.39500000 174.07200000 148.95300000
Ni 136.39500000 176.16300000 151.04700000
Ni 138.48900000 174.07200000 151.04700000
Ni 138.48900000 176.16300000 148.95300000
O 138.48900000 174.07200000 148.95300000
O 138.48900000 176.16300000 151.04700000
O 136.39500000 174.07200000 151.04700000
O 136.39500000 176.16300000 148.95300000
Ni 136.39500000 174.07200000 153.14100000
Ni 136.39500000 176.16300000 155.23200000
Ni 138.48900000 174.07200000 155.23200000
Ni 138.48900000 176.16300000 153.14100000
O 138.48900000 174.07200000 153.14100000
O 138.48900000 176.16300000 155.23200000
O 136.39500000 174.07200000 155.23200000
O 136.39500000 176.16300000 153.14100000
Ni 136.39500000 174.07200000 157.32600000
Ni 138.48900000 174.07200000 159.42000000
Ni 138.48900000 176.16300000 157.32600000
O 138.48900000 174.07200000 157.32600000
O 136.39500000 174.07200000 159.42000000
Ni 136.39500000 174.07200000 161.51100000
Ni 138.48900000 174.07200000 163.60500000
O 138.48900000 174.07200000 161.51100000
Ni 140.58000000 121.74300000 146.85900000
Ni 142.67400000 121.74300000 144.76800000
O 142.67400000 121.74300000 146.85900000
Ni 140.58000000 121.74300000 151.04700000
Ni 142.67400000 121.74300000 148.95300000
O 142.67400000 121.74300000 151.04700000
O 140.58000000 121.74300000 148.95300000
Ni 142.67400000 121.74300000 153.14100000
O 142.67400000 121.74300000 155.23200000
O 140.58000000 121.74300000 153.14100000
O 142.67400000 125.92800000 134.30100000
Ni 140.58000000 125.92800000 138.48900000
Ni 142.67400000 123.83700000 138.48900000
Ni 142.67400000 125.92800000 136.39500000
O 142.67400000 125.92800000 138.48900000
O 140.58000000 125.92800000 136.39500000
Ni 140.58000000 123.83700000 140.58000000
Ni 140.58000000 125.92800000 142.67400000
Ni 142.67400000 123.83700000 142.67400000
Ni 142.67400000 125.92800000 140.58000000
O 142.67400000 123.83700000 140.58000000
O 142.67400000 125.92800000 142.67400000
O 140.58000000 123.83700000 142.67400000
O 140.58000000 125.92800000 140.58000000
Ni 140.58000000 123.83700000 144.76800000
Ni 140.58000000 125.92800000 146.85900000
Ni 142.67400000 123.83700000 146.85900000
Ni 142.67400000 125.92800000 144.76800000
O 142.67400000 123.83700000 144.76800000
O 142.67400000 125.92800000 146.85900000
O 140.58000000 123.83700000 146.85900000
O 140.58000000 125.92800000 144.76800000
Ni 140.58000000 123.83700000 148.95300000
Ni 140.58000000 125.92800000 151.04700000
Ni 142.67400000 123.83700000 151.04700000
Ni 142.67400000 125.92800000 148.95300000
O 142.67400000 123.83700000 148.95300000
O 142.67400000 125.92800000 151.04700000
O 140.58000000 123.83700000 151.04700000
O 140.58000000 125.92800000 148.95300000
Ni 140.58000000 123.83700000 153.14100000
Ni 140.58000000 125.92800000 155.23200000
Ni 142.67400000 123.83700000 155.23200000
Ni 142.67400000 125.92800000 153.14100000
O 142.67400000 123.83700000 153.14100000
O 142.67400000 125.92800000 155.23200000
O 140.58000000 123.83700000 155.23200000
O 140.58000000 125.92800000 153.14100000
Ni 140.58000000 123.83700000 157.32600000
Ni 140.58000000 125.92800000 159.42000000
Ni 142.67400000 123.83700000 159.42000000
Ni 142.67400000 125.92800000 157.32600000
O 142.67400000 123.83700000 157.32600000
O 142.67400000 125.92800000 159.42000000
O 140.58000000 123.83700000 159.42000000
O 140.58000000 125.92800000 157.32600000
Ni 140.58000000 125.92800000 163.60500000
Ni 142.67400000 125.92800000 161.51100000
O 142.67400000 123.83700000 161.51100000
O 142.67400000 125.92800000 163.60500000
O 140.58000000 125.92800000 161.51100000
Ni 142.67400000 125.92800000 165.69900000
Ni 140.58000000 130.11600000 130.11600000
O 142.67400000 130.11600000 130.11600000
Ni 140.58000000 128.02200000 132.20700000
Ni 140.58000000 130.11600000 134.30100000
Ni 142.67400000 128.02200000 134.30100000
Ni 142.67400000 130.11600000 132.20700000
O 142.67400000 128.02200000 132.20700000
O 142.67400000 130.11600000 134.30100000
O 140.58000000 128.02200000 134.30100000
O 140.58000000 130.11600000 132.20700000
Ni 140.58000000 128.02200000 136.39500000
Ni 140.58000000 130.11600000 138.48900000
Ni 142.67400000 128.02200000 138.48900000
Ni 142.67400000 130.11600000 136.39500000
O 142.67400000 128.02200000 136.39500000
O 142.67400000 130.11600000 138.48900000
O 140.58000000 128.02200000 138.48900000
O 140.58000000 130.11600000 136.39500000
Ni 140.58000000 128.02200000 140.58000000
Ni 140.58000000 130.11600000 142.67400000
Ni 142.67400000 128.02200000 142.67400000
Ni 142.67400000 130.11600000 140.58000000
O 142.67400000 128.02200000 140.58000000
O 142.67400000 130.11600000 142.67400000
O 140.58000000 128.02200000 142.67400000
O 140.58000000 130.11600000 140.58000000
Ni 140.58000000 128.02200000 144.76800000
Ni 140.58000000 130.11600000 146.85900000
Ni 142.67400000 128.02200000 146.85900000
Ni 142.67400000 130.11600000 144.76800000
O 142.67400000 128.02200000 144.76800000
O 142.67400000 130.11600000 146.85900000
O 140.58000000 128.02200000 146.85900000
O 140.58000000 130.11600000 144.76800000
Ni 140.58000000 128.02200000 148.95300000
Ni 140.58000000 130.11600000 151.04700000
Ni 142.67400000 128.02200000 151.04700000
Ni 142.67400000 130.11600000 148.95300000
O 142.67400000 128.02200000 148.95300000
O 142.67400000 130.11600000 151.04700000
O 140.58000000 128.02200000 151.04700000
O 140.58000000 130.11600000 148.95300000
Ni 140.58000000 128.02200000 153.14100000
Ni 140.58000000 130.11600000 155.23200000
Ni 142.67400000 128.02200000 155.23200000
Ni 142.67400000 130.11600000 153.14100000
O 142.67400000 128.02200000 153.14100000
O 142.67400000 130.11600000 155.23200000
O 140.58000000 128.02200000 155.23200000
O 140.58000000 130.11600000 153.14100000
Ni 140.58000000 128.02200000 157.32600000
Ni 140.58000000 130.11600000 159.42000000
Ni 142.67400000 128.02200000 159.42000000
Ni 142.67400000 130.11600000 157.32600000
O 142.67400000 128.02200000 157.32600000
O 142.67400000 130.11600000 159.42000000
O 140.58000000 128.02200000 159.42000000
O 140.58000000 130.11600000 157.32600000
Ni 140.58000000 128.02200000 161.51100000
Ni 140.58000000 130.11600000 163.60500000
Ni 142.67400000 128.02200000 163.60500000
Ni 142.67400000 130.11600000 161.51100000
O 142.67400000 128.02200000 161.51100000
O 142.67400000 130.11600000 163.60500000
O 140.58000000 128.02200000 163.60500000
O 140.58000000 130.11600000 161.51100000
Ni 140.58000000 128.02200000 165.69900000
Ni 140.58000000 130.11600000 167.79300000
Ni 142.67400000 128.02200000 167.79300000
Ni 142.67400000 130.11600000 165.69900000
O 142.67400000 128.02200000 165.69900000
O 142.67400000 130.11600000 167.79300000
O 140.58000000 128.02200000 167.79300000
O 140.58000000 130.11600000 165.69900000
Ni 142.67400000 130.11600000 169.88400000
O 140.58000000 130.11600000 169.88400000
O 142.67400000 134.30100000 125.92800000
Ni 140.58000000 132.20700000 128.02200000
Ni 140.58000000 134.30100000 130.11600000
Ni 142.67400000 132.20700000 130.11600000
Ni 142.67400000 134.30100000 128.02200000
O 142.67400000 132.20700000 128.02200000
O 142.67400000 134.30100000 130.11600000
O 140.58000000 132.20700000 130.11600000
O 140.58000000 134.30100000 128.02200000
Ni 140.58000000 132.20700000 132.20700000
Ni 140.58000000 134.30100000 134.30100000
Ni 142.67400000 132.20700000 134.30100000
Ni 142.67400000 134.30100000 132.20700000
O 142.67400000 132.20700000 132.20700000
O 142.67400000 134.30100000 134.30100000
O 140.58000000 132.20700000 134.30100000
O 140.58000000 134.30100000 132.20700000
Ni 140.58000000 132.20700000 136.39500000
Ni 140.58000000 134.30100000 138.48900000
Ni 142.67400000 132.20700000 138.48900000
Ni 142.67400000 134.30100000 136.39500000
O 142.67400000 132.20700000 136.39500000
O 142.67400000 134.30100000 138.48900000
O 140.58000000 132.20700000 138.48900000
O 140.58000000 134.30100000 136.39500000
Ni 140.58000000 132.20700000 140.58000000
Ni 140.58000000 134.30100000 142.67400000
Ni 142.67400000 132.20700000 142.67400000
Ni 142.67400000 134.30100000 140.58000000
O 142.67400000 132.20700000 140.58000000
O 142.67400000 134.30100000 142.67400000
O 140.58000000 132.20700000 142.67400000
O 140.58000000 134.30100000 140.58000000
Ni 140.58000000 132.20700000 144.76800000
Ni 140.58000000 134.30100000 146.85900000
Ni 142.67400000 132.20700000 146.85900000
Ni 142.67400000 134.30100000 144.76800000
O 142.67400000 132.20700000 144.76800000
O 142.67400000 134.30100000 146.85900000
O 140.58000000 132.20700000 146.85900000
O 140.58000000 134.30100000 144.76800000
Ni 140.58000000 132.20700000 148.95300000
Ni 140.58000000 134.30100000 151.04700000
Ni 142.67400000 132.20700000 151.04700000
Ni 142.67400000 134.30100000 148.95300000
O 142.67400000 132.20700000 148.95300000
O 142.67400000 134.30100000 151.04700000
O 140.58000000 132.20700000 151.04700000
O 140.58000000 134.30100000 148.95300000
Ni 140.58000000 132.20700000 153.14100000
Ni 140.58000000 134.30100000 155.23200000
Ni 142.67400000 132.20700000 155.23200000
Ni 142.67400000 134.30100000 153.14100000
O 142.67400000 132.20700000 153.14100000
O 142.67400000 134.30100000 155.23200000
O 140.58000000 132.20700000 155.23200000
O 140.58000000 134.30100000 153.14100000
Ni 140.58000000 132.20700000 157.32600000
Ni 140.58000000 134.30100000 159.42000000
Ni 142.67400000 132.20700000 159.42000000
Ni 142.67400000 134.30100000 157.32600000
O 142.67400000 132.20700000 157.32600000
O 142.67400000 134.30100000 159.42000000
O 140.58000000 132.20700000 159.42000000
O 140.58000000 134.30100000 157.32600000
Ni 140.58000000 132.20700000 161.51100000
Ni 140.58000000 134.30100000 163.60500000
Ni 142.67400000 132.20700000 163.60500000
Ni 142.67400000 134.30100000 161.51100000
O 142.67400000 132.20700000 161.51100000
O 142.67400000 134.30100000 163.60500000
O 140.58000000 132.20700000 163.60500000
O 140.58000000 134.30100000 161.51100000
Ni 140.58000000 132.20700000 165.69900000
Ni 140.58000000 134.30100000 167.79300000
Ni 142.67400000 132.20700000 167.79300000
Ni 142.67400000 134.30100000 165.69900000
O 142.67400000 132.20700000 165.69900000
O 142.67400000 134.30100000 167.79300000
O 140.58000000 132.20700000 167.79300000
O 140.58000000 134.30100000 165.69900000
Ni 140.58000000 132.20700000 169.88400000
Ni 140.58000000 134.30100000 171.97800000
Ni 142.67400000 132.20700000 171.97800000
Ni 142.67400000 134.30100000 169.88400000
O 142.67400000 132.20700000 169.88400000
O 142.67400000 134.30100000 171.97800000
O 140.58000000 132.20700000 171.97800000
O 140.58000000 134.30100000 169.88400000
Ni 142.67400000 134.30100000 174.07200000
Ni 140.58000000 138.48900000 125.92800000
Ni 142.67400000 136.39500000 125.92800000
Ni 142.67400000 138.48900000 123.83700000
O 142.67400000 138.48900000 125.92800000
O 140.58000000 136.39500000 125.92800000
Ni 140.58000000 136.39500000 128.02200000
Ni 140.58000000 138.48900000 130.11600000
Ni 142.67400000 136.39500000 130.11600000
Ni 142.67400000 138.48900000 128.02200000
O 142.67400000 136.39500000 128.02200000
O 142.67400000 138.48900000 130.11600000
O 140.58000000 136.39500000 130.11600000
O 140.58000000 138.48900000 128.02200000
Ni 140.58000000 136.39500000 132.20700000
Ni 140.58000000 138.48900000 134.30100000
Ni 142.67400000 136.39500000 134.30100000
Ni 142.67400000 138.48900000 132.20700000
O 142.67400000 136.39500000 132.20700000
O 142.67400000 138.48900000 134.30100000
O 140.58000000 136.39500000 134.30100000
O 140.58000000 138.48900000 132.20700000
Ni 140.58000000 136.39500000 136.39500000
Ni 140.58000000 138.48900000 138.48900000
Ni 142.67400000 136.39500000 138.48900000
Ni 142.67400000 138.48900000 136.39500000
O 142.67400000 136.39500000 136.39500000
O 142.67400000 138.48900000 138.48900000
O 140.58000000 136.39500000 138.48900000
O 140.58000000 138.48900000 136.39500000
Ni 140.58000000 136.39500000 140.58000000
Ni 140.58000000 138.48900000 142.67400000
Ni 142.67400000 136.39500000 142.67400000
Ni 142.67400000 138.48900000 140.58000000
O 142.67400000 136.39500000 140.58000000
O 142.67400000 138.48900000 142.67400000
O 140.58000000 136.39500000 142.67400000
O 140.58000000 138.48900000 140.58000000
Ni 140.58000000 136.39500000 144.76800000
Ni 140.58000000 138.48900000 146.85900000
Ni 142.67400000 136.39500000 146.85900000
Ni 142.67400000 138.48900000 144.76800000
O 142.67400000 136.39500000 144.76800000
O 142.67400000 138.48900000 146.85900000
O 140.58000000 136.39500000 146.85900000
O 140.58000000 138.48900000 144.76800000
Ni 140.58000000 136.39500000 148.95300000
Ni 140.58000000 138.48900000 151.04700000
Ni 142.67400000 136.39500000 151.04700000
Ni 142.67400000 138.48900000 148.95300000
O 142.67400000 136.39500000 148.95300000
O 142.67400000 138.48900000 151.04700000
O 140.58000000 136.39500000 151.04700000
O 140.58000000 138.48900000 148.95300000
Ni 140.58000000 136.39500000 153.14100000
Ni 140.58000000 138.48900000 155.23200000
Ni 142.67400000 136.39500000 155.23200000
Ni 142.67400000 138.48900000 153.14100000
O 142.67400000 136.39500000 153.14100000
O 142.67400000 138.48900000 155.23200000
O 140.58000000 136.39500000 155.23200000
O 140.58000000 138.48900000 153.14100000
Ni 140.58000000 136.39500000 157.32600000
Ni 140.58000000 138.48900000 159.42000000
Ni 142.67400000 136.39500000 159.42000000
Ni 142.67400000 138.48900000 157.32600000
O 142.67400000 136.39500000 157.32600000
O 142.67400000 138.48900000 159.42000000
O 140.58000000 136.39500000 159.42000000
O 140.58000000 138.48900000 157.32600000
Ni 140.58000000 136.39500000 161.51100000
Ni 140.58000000 138.48900000 163.60500000
Ni 142.67400000 136.39500000 163.60500000
Ni 142.67400000 138.48900000 161.51100000
O 142.67400000 136.39500000 161.51100000
O 142.67400000 138.48900000 163.60500000
O 140.58000000 136.39500000 163.60500000
O 140.58000000 138.48900000 161.51100000
Ni 140.58000000 136.39500000 165.69900000
Ni 140.58000000 138.48900000 167.79300000
Ni 142.67400000 136.39500000 167.79300000
Ni 142.67400000 138.48900000 165.69900000
O 142.67400000 136.39500000 165.69900000
O 142.67400000 138.48900000 167.79300000
O 140.58000000 136.39500000 167.79300000
O 140.58000000 138.48900000 165.69900000
Ni 140.58000000 136.39500000 169.88400000
Ni 140.58000000 138.48900000 171.97800000
Ni 142.67400000 136.39500000 171.97800000
Ni 142.67400000 138.48900000 169.88400000
O 142.67400000 136.39500000 169.88400000
O 142.67400000 138.48900000 171.97800000
O 140.58000000 136.39500000 171.97800000
O 140.58000000 138.48900000 169.88400000
Ni 140.58000000 136.39500000 174.07200000
Ni 142.67400000 138.48900000 174.07200000
O 142.67400000 136.39500000 174.07200000
O 142.67400000 138.48900000 176.16300000
O 140.58000000 138.48900000 174.07200000
Ni 140.58000000 140.58000000 123.83700000
Ni 140.58000000 142.67400000 125.92800000
Ni 142.67400000 140.58000000 125.92800000
Ni 142.67400000 142.67400000 123.83700000
O 142.67400000 140.58000000 123.83700000
O 142.67400000 142.67400000 125.92800000
O 140.58000000 140.58000000 125.92800000
O 140.58000000 142.67400000 123.83700000
Ni 140.58000000 140.58000000 128.02200000
Ni 140.58000000 142.67400000 130.11600000
Ni 142.67400000 140.58000000 130.11600000
Ni 142.67400000 142.67400000 128.02200000
O 142.67400000 140.58000000 128.02200000
O 142.67400000 142.67400000 130.11600000
O 140.58000000 140.58000000 130.11600000
O 140.58000000 142.67400000 128.02200000
Ni 140.58000000 140.58000000 132.20700000
Ni 140.58000000 142.67400000 134.30100000
Ni 142.67400000 140.58000000 134.30100000
Ni 142.67400000 142.67400000 132.20700000
O 142.67400000 140.58000000 132.20700000
O 142.67400000 142.67400000 134.30100000
O 140.58000000 140.58000000 134.30100000
O 140.58000000 142.67400000 132.20700000
Ni 140.58000000 140.58000000 136.39500000
Ni 140.58000000 142.67400000 138.48900000
Ni 142.67400000 140.58000000 138.48900000
Ni 142.67400000 142.67400000 136.39500000
O 142.67400000 140.58000000 136.39500000
O 142.67400000 142.67400000 138.48900000
O 140.58000000 140.58000000 138.48900000
O 140.58000000 142.67400000 136.39500000
Ni 140.58000000 140.58000000 140.58000000
Ni 140.58000000 142.67400000 142.67400000
Ni 142.67400000 140.58000000 142.67400000
Ni 142.67400000 142.67400000 140.58000000
O 142.67400000 140.58000000 140.58000000
O 142.67400000 142.67400000 142.67400000
O 140.58000000 140.58000000 142.67400000
O 140.58000000 142.67400000 140.58000000
Ni 140.58000000 140.58000000 144.76800000
Ni 140.58000000 142.67400000 146.85900000
Ni 142.67400000 140.58000000 146.85900000
Ni 142.67400000 142.67400000 144.76800000
O 142.67400000 140.58000000 144.76800000
O 142.67400000 142.67400000 146.85900000
O 140.58000000 140.58000000 146.85900000
O 140.58000000 142.67400000 144.76800000
Ni 140.58000000 140.58000000 148.95300000
Ni 140.58000000 142.67400000 151.04700000
Ni 142.67400000 140.58000000 151.04700000
Ni 142.67400000 142.67400000 148.95300000
O 142.67400000 140.58000000 148.95300000
O 142.67400000 142.67400000 151.04700000
O 140.58000000 140.58000000 151.04700000
O 140.58000000 142.67400000 148.95300000
Ni 140.58000000 140.58000000 153.14100000
Ni 140.58000000 142.67400000 155.23200000
Ni 142.67400000 140.58000000 155.23200000
Ni 142.67400000 142.67400000 153.14100000
O 142.67400000 140.58000000 153.14100000
O 142.67400000 142.67400000 155.23200000
O 140.58000000 140.58000000 155.23200000
O 140.58000000 142.67400000 153.14100000
Ni 140.58000000 140.58000000 157.32600000
Ni 140.58000000 142.67400000 159.42000000
Ni 142.67400000 140.58000000 159.42000000
Ni 142.67400000 142.67400000 157.32600000
O 142.67400000 140.58000000 157.32600000
O 142.67400000 142.67400000 159.42000000
O 140.58000000 140.58000000 159.42000000
O 140.58000000 142.67400000 157.32600000
Ni 140.58000000 140.58000000 161.51100000
Ni 140.58000000 142.67400000 163.60500000
Ni 142.67400000 140.58000000 163.60500000
Ni 142.67400000 142.67400000 161.51100000
O 142.67400000 140.58000000 161.51100000
O 142.67400000 142.67400000 163.60500000
O 140.58000000 140.58000000 163.60500000
O 140.58000000 142.67400000 161.51100000
Ni 140.58000000 140.58000000 165.69900000
Ni 140.58000000 142.67400000 167.79300000
Ni 142.67400000 140.58000000 167.79300000
Ni 142.67400000 142.67400000 165.69900000
O 142.67400000 140.58000000 165.69900000
O 142.67400000 142.67400000 167.79300000
O 140.58000000 140.58000000 167.79300000
O 140.58000000 142.67400000 165.69900000
Ni 140.58000000 140.58000000 169.88400000
Ni 140.58000000 142.67400000 171.97800000
Ni 142.67400000 140.58000000 171.97800000
Ni 142.67400000 142.67400000 169.88400000
O 142.67400000 140.58000000 169.88400000
O 142.67400000 142.67400000 171.97800000
O 140.58000000 140.58000000 171.97800000
O 140.58000000 142.67400000 169.88400000
Ni 140.58000000 140.58000000 174.07200000
Ni 140.58000000 142.67400000 176.16300000
Ni 142.67400000 140.58000000 176.16300000
Ni 142.67400000 142.67400000 174.07200000
O 142.67400000 140.58000000 174.07200000
O 142.67400000 142.67400000 176.16300000
O 140.58000000 140.58000000 176.16300000
O 140.58000000 142.67400000 174.07200000
Ni 140.58000000 146.85900000 121.74300000
Ni 142.67400000 144.76800000 121.74300000
O 142.67400000 146.85900000 121.74300000
Ni 140.58000000 144.76800000 123.83700000
Ni 140.58000000 146.85900000 125.92800000
Ni 142.67400000 144.76800000 125.92800000
Ni 142.67400000 146.85900000 123.83700000
O 142.67400000 144.76800000 123.83700000
O 142.67400000 146.85900000 125.92800000
O 140.58000000 144.76800000 125.92800000
O 140.58000000 146.85900000 123.83700000
Ni 140.58000000 144.76800000 128.02200000
Ni 140.58000000 146.85900000 130.11600000
Ni 142.67400000 144.76800000 130.11600000
Ni 142.67400000 146.85900000 128.02200000
O 142.67400000 144.76800000 128.02200000
O 142.67400000 146.85900000 130.11600000
O 140.58000000 144.76800000 130.11600000
O 140.58000000 146.85900000 128.02200000
Ni 140.58000000 144.76800000 132.20700000
Ni 140.58000000 146.85900000 134.30100000
Ni 142.67400000 144.76800000 134.30100000
Ni 142.67400000 146.85900000 132.20700000
O 142.67400000 144.76800000 132.20700000
O 142.67400000 146.85900000 134.30100000
O 140.58000000 144.76800000 134.30100000
O 140.58000000 146.85900000 132.20700000
Ni 140.58000000 144.76800000 136.39500000
Ni 140.58000000 146.85900000 138.48900000
Ni 142.67400000 144.76800000 138.48900000
Ni 142.67400000 146.85900000 136.39500000
O 142.67400000 144.76800000 136.39500000
O 142.67400000 146.85900000 138.48900000
O 140.58000000 144.76800000 138.48900000
O 140.58000000 146.85900000 136.39500000
Ni 140.58000000 144.76800000 140.58000000
Ni 140.58000000 146.85900000 142.67400000
Ni 142.67400000 144.76800000 142.67400000
Ni 142.67400000 146.85900000 140.58000000
O 142.67400000 144.76800000 140.58000000
O 142.67400000 146.85900000 142.67400000
O 140.58000000 144.76800000 142.67400000
O 140.58000000 146.85900000 140.58000000
Ni 140.58000000 144.76800000 144.76800000
Ni 140.58000000 146.85900000 146.85900000
Ni 142.67400000 144.76800000 146.85900000
Ni 142.67400000 146.85900000 144.76800000
O 142.67400000 144.76800000 144.76800000
O 142.67400000 146.85900000 146.85900000
O 140.58000000 144.76800000 146.85900000
O 140.58000000 146.85900000 144.76800000
Ni 140.58000000 144.76800000 148.95300000
Ni 140.58000000 146.85900000 151.04700000
Ni 142.67400000 144.76800000 151.04700000
Ni 142.67400000 146.85900000 148.95300000
O 142.67400000 144.76800000 148.95300000
O 142.67400000 146.85900000 151.04700000
O 140.58000000 144.76800000 151.04700000
O 140.58000000 146.85900000 148.95300000
Ni 140.58000000 144.76800000 153.14100000
Ni 140.58000000 146.85900000 155.23200000
Ni 142.67400000 144.76800000 155.23200000
Ni 142.67400000 146.85900000 153.14100000
O 142.67400000 144.76800000 153.14100000
O 142.67400000 146.85900000 155.23200000
O 140.58000000 144.76800000 155.23200000
O 140.58000000 146.85900000 153.14100000
Ni 140.58000000 144.76800000 157.32600000
Ni 140.58000000 146.85900000 159.42000000
Ni 142.67400000 144.76800000 159.42000000
Ni 142.67400000 146.85900000 157.32600000
O 142.67400000 144.76800000 157.32600000
O 142.67400000 146.85900000 159.42000000
O 140.58000000 144.76800000 159.42000000
O 140.58000000 146.85900000 157.32600000
Ni 140.58000000 144.76800000 161.51100000
Ni 140.58000000 146.85900000 163.60500000
Ni 142.67400000 144.76800000 163.60500000
Ni 142.67400000 146.85900000 161.51100000
O 142.67400000 144.76800000 161.51100000
O 142.67400000 146.85900000 163.60500000
O 140.58000000 144.76800000 163.60500000
O 140.58000000 146.85900000 161.51100000
Ni 140.58000000 144.76800000 165.69900000
Ni 140.58000000 146.85900000 167.79300000
Ni 142.67400000 144.76800000 167.79300000
Ni 142.67400000 146.85900000 165.69900000
O 142.67400000 144.76800000 165.69900000
O 142.67400000 146.85900000 167.79300000
O 140.58000000 144.76800000 167.79300000
O 140.58000000 146.85900000 165.69900000
Ni 140.58000000 144.76800000 169.88400000
Ni 140.58000000 146.85900000 171.97800000
Ni 142.67400000 144.76800000 171.97800000
Ni 142.67400000 146.85900000 169.88400000
O 142.67400000 144.76800000 169.88400000
O 142.67400000 146.85900000 171.97800000
O 140.58000000 144.76800000 171.97800000
O 140.58000000 146.85900000 169.88400000
Ni 140.58000000 144.76800000 174.07200000
Ni 140.58000000 146.85900000 176.16300000
Ni 142.67400000 144.76800000 176.16300000
Ni 142.67400000 146.85900000 174.07200000
O 142.67400000 144.76800000 174.07200000
O 142.67400000 146.85900000 176.16300000
O 140.58000000 144.76800000 176.16300000
O 140.58000000 146.85900000 174.07200000
Ni 142.67400000 146.85900000 178.25700000
O 142.67400000 144.76800000 178.25700000
O 140.58000000 146.85900000 178.25700000
Ni 140.58000000 151.04700000 121.74300000
Ni 142.67400000 148.95300000 121.74300000
O 142.67400000 151.04700000 121.74300000
O 140.58000000 148.95300000 121.74300000
Ni 140.58000000 148.95300000 123.83700000
Ni 140.58000000 151.04700000 125.92800000
Ni 142.67400000 148.95300000 125.92800000
Ni 142.67400000 151.04700000 123.83700000
O 142.67400000 148.95300000 123.83700000
O 142.67400000 151.04700000 125.92800000
O 140.58000000 148.95300000 125.92800000
O 140.58000000 151.04700000 123.83700000
Ni 140.58000000 148.95300000 128.02200000
Ni 140.58000000 151.04700000 130.11600000
Ni 142.67400000 148.95300000 130.11600000
Ni 142.67400000 151.04700000 128.02200000
O 142.67400000 148.95300000 128.02200000
O 142.67400000 151.04700000 130.11600000
O 140.58000000 148.95300000 130.11600000
O 140.58000000 151.04700000 128.02200000
Ni 140.58000000 148.95300000 132.20700000
Ni 140.58000000 151.04700000 134.30100000
Ni 142.67400000 148.95300000 134.30100000
Ni 142.67400000 151.04700000 132.20700000
O 142.67400000 148.95300000 132.20700000
O 142.67400000 151.04700000 134.30100000
O 140.58000000 148.95300000 134.30100000
O 140.58000000 151.04700000 132.20700000
Ni 140.58000000 148.95300000 136.39500000
Ni 140.58000000 151.04700000 138.48900000
Ni 142.67400000 148.95300000 138.48900000
Ni 142.67400000 151.04700000 136.39500000
O 142.67400000 148.95300000 136.39500000
O 142.67400000 151.04700000 138.48900000
O 140.58000000 148.95300000 138.48900000
O 140.58000000 151.04700000 136.39500000
Ni 140.58000000 148.95300000 140.58000000
Ni 140.58000000 151.04700000 142.67400000
Ni 142.67400000 148.95300000 142.67400000
Ni 142.67400000 151.04700000 140.58000000
O 142.67400000 148.95300000 140.58000000
O 142.67400000 151.04700000 142.67400000
O 140.58000000 148.95300000 142.67400000
O 140.58000000 151.04700000 140.58000000
Ni 140.58000000 148.95300000 144.76800000
Ni 140.58000000 151.04700000 146.85900000
Ni 142.67400000 148.95300000 146.85900000
Ni 142.67400000 151.04700000 144.76800000
O 142.67400000 148.95300000 144.76800000
O 142.67400000 151.04700000 146.85900000
O 140.58000000 148.95300000 146.85900000
O 140.58000000 151.04700000 144.76800000
Ni 140.58000000 148.95300000 148.95300000
Ni 140.58000000 151.04700000 151.04700000
Ni 142.67400000 148.95300000 151.04700000
Ni 142.67400000 151.04700000 148.95300000
O 142.67400000 148.95300000 148.95300000
O 142.67400000 151.04700000 151.04700000
O 140.58000000 148.95300000 151.04700000
O 140.58000000 151.04700000 148.95300000
Ni 140.58000000 148.95300000 153.14100000
Ni 140.58000000 151.04700000 155.23200000
Ni 142.67400000 148.95300000 155.23200000
Ni 142.67400000 151.04700000 153.14100000
O 142.67400000 148.95300000 153.14100000
O 142.67400000 151.04700000 155.23200000
O 140.58000000 148.95300000 155.23200000
O 140.58000000 151.04700000 153.14100000
Ni 140.58000000 148.95300000 157.32600000
Ni 140.58000000 151.04700000 159.42000000
Ni 142.67400000 148.95300000 159.42000000
Ni 142.67400000 151.04700000 157.32600000
O 142.67400000 148.95300000 157.32600000
O 142.67400000 151.04700000 159.42000000
O 140.58000000 148.95300000 159.42000000
O 140.58000000 151.04700000 157.32600000
Ni 140.58000000 148.95300000 161.51100000
Ni 140.58000000 151.04700000 163.60500000
Ni 142.67400000 148.95300000 163.60500000
Ni 142.67400000 151.04700000 161.51100000
O 142.67400000 148.95300000 161.51100000
O 142.67400000 151.04700000 163.60500000
O 140.58000000 148.95300000 163.60500000
O 140.58000000 151.04700000 161.51100000
Ni 140.58000000 148.95300000 165.69900000
Ni 140.58000000 151.04700000 167.79300000
Ni 142.67400000 148.95300000 167.79300000
Ni 142.67400000 151.04700000 165.69900000
O 142.67400000 148.95300000 165.69900000
O 142.67400000 151.04700000 167.79300000
O 140.58000000 148.95300000 167.79300000
O 140.58000000 151.04700000 165.69900000
Ni 140.58000000 148.95300000 169.88400000
Ni 140.58000000 151.04700000 171.97800000
Ni 142.67400000 148.95300000 171.97800000
Ni 142.67400000 151.04700000 169.88400000
O 142.67400000 148.95300000 169.88400000
O 142.67400000 151.04700000 171.97800000
O 140.58000000 148.95300000 171.97800000
O 140.58000000 151.04700000 169.88400000
Ni 140.58000000 148.95300000 174.07200000
Ni 140.58000000 151.04700000 176.16300000
Ni 142.67400000 148.95300000 176.16300000
Ni 142.67400000 151.04700000 174.07200000
O 142.67400000 148.95300000 174.07200000
O 142.67400000 151.04700000 176.16300000
O 140.58000000 148.95300000 176.16300000
O 140.58000000 151.04700000 174.07200000
Ni 140.58000000 148.95300000 178.25700000
Ni 142.67400000 151.04700000 178.25700000
O 142.67400000 148.95300000 178.25700000
O 140.58000000 151.04700000 178.25700000
Ni 142.67400000 153.14100000 121.74300000
O 142.67400000 155.23200000 121.74300000
O 140.58000000 153.14100000 121.74300000
Ni 140.58000000 153.14100000 123.83700000
Ni 140.58000000 155.23200000 125.92800000
Ni 142.67400000 153.14100000 125.92800000
Ni 142.67400000 155.23200000 123.83700000
O 142.67400000 153.14100000 123.83700000
O 142.67400000 155.23200000 125.92800000
O 140.58000000 153.14100000 125.92800000
O 140.58000000 155.23200000 123.83700000
Ni 140.58000000 153.14100000 128.02200000
Ni 140.58000000 155.23200000 130.11600000
Ni 142.67400000 153.14100000 130.11600000
Ni 142.67400000 155.23200000 128.02200000
O 142.67400000 153.14100000 128.02200000
O 142.67400000 155.23200000 130.11600000
O 140.58000000 153.14100000 130.11600000
O 140.58000000 155.23200000 128.02200000
Ni 140.58000000 153.14100000 132.20700000
Ni 140.58000000 155.23200000 134.30100000
Ni 142.67400000 153.14100000 134.30100000
Ni 142.67400000 155.23200000 132.20700000
O 142.67400000 153.14100000 132.20700000
O 142.67400000 155.23200000 134.30100000
O 140.58000000 153.14100000 134.30100000
O 140.58000000 155.23200000 132.20700000
Ni 140.58000000 153.14100000 136.39500000
Ni 140.58000000 155.23200000 138.48900000
Ni 142.67400000 153.14100000 138.48900000
Ni 142.67400000 155.23200000 136.39500000
O 142.67400000 153.14100000 136.39500000
O 142.67400000 155.23200000 138.48900000
O 140.58000000 153.14100000 138.48900000
O 140.58000000 155.23200000 136.39500000
Ni 140.58000000 153.14100000 140.58000000
Ni 140.58000000 155.23200000 142.67400000
Ni 142.67400000 153.14100000 142.67400000
Ni 142.67400000 155.23200000 140.58000000
O 142.67400000 153.14100000 140.58000000
O 142.67400000 155.23200000 142.67400000
O 140.58000000 153.14100000 142.67400000
O 140.58000000 155.23200000 140.58000000
Ni 140.58000000 153.14100000 144.76800000
Ni 140.58000000 155.23200000 146.85900000
Ni 142.67400000 153.14100000 146.85900000
Ni 142.67400000 155.23200000 144.76800000
O 142.67400000 153.14100000 144.76800000
O 142.67400000 155.23200000 146.85900000
O 140.58000000 153.14100000 146.85900000
O 140.58000000 155.23200000 144.76800000
Ni 140.58000000 153.14100000 148.95300000
Ni 140.58000000 155.23200000 151.04700000
Ni 142.67400000 153.14100000 151.04700000
Ni 142.67400000 155.23200000 148.95300000
O 142.67400000 153.14100000 148.95300000
O 142.67400000 155.23200000 151.04700000
O 140.58000000 153.14100000 151.04700000
O 140.58000000 155.23200000 148.95300000
Ni 140.58000000 153.14100000 153.14100000
Ni 140.58000000 155.23200000 155.23200000
Ni 142.67400000 153.14100000 155.23200000
Ni 142.67400000 155.23200000 153.14100000
O 142.67400000 153.14100000 153.14100000
O 142.67400000 155.23200000 155.23200000
O 140.58000000 153.14100000 155.23200000
O 140.58000000 155.23200000 153.14100000
Ni 140.58000000 153.14100000 157.32600000
Ni 140.58000000 155.23200000 159.42000000
Ni 142.67400000 153.14100000 159.42000000
Ni 142.67400000 155.23200000 157.32600000
O 142.67400000 153.14100000 157.32600000
O 142.67400000 155.23200000 159.42000000
O 140.58000000 153.14100000 159.42000000
O 140.58000000 155.23200000 157.32600000
Ni 140.58000000 153.14100000 161.51100000
Ni 140.58000000 155.23200000 163.60500000
Ni 142.67400000 153.14100000 163.60500000
Ni 142.67400000 155.23200000 161.51100000
O 142.67400000 153.14100000 161.51100000
O 142.67400000 155.23200000 163.60500000
O 140.58000000 153.14100000 163.60500000
O 140.58000000 155.23200000 161.51100000
Ni 140.58000000 153.14100000 165.69900000
Ni 140.58000000 155.23200000 167.79300000
Ni 142.67400000 153.14100000 167.79300000
Ni 142.67400000 155.23200000 165.69900000
O 142.67400000 153.14100000 165.69900000
O 142.67400000 155.23200000 167.79300000
O 140.58000000 153.14100000 167.79300000
O 140.58000000 155.23200000 165.69900000
Ni 140.58000000 153.14100000 169.88400000
Ni 140.58000000 155.23200000 171.97800000
Ni 142.67400000 153.14100000 171.97800000
Ni 142.67400000 155.23200000 169.88400000
O 142.67400000 153.14100000 169.88400000
O 142.67400000 155.23200000 171.97800000
O 140.58000000 153.14100000 171.97800000
O 140.58000000 155.23200000 169.88400000
Ni 140.58000000 153.14100000 174.07200000
Ni 140.58000000 155.23200000 176.16300000
Ni 142.67400000 153.14100000 176.16300000
Ni 142.67400000 155.23200000 174.07200000
O 142.67400000 153.14100000 174.07200000
O 142.67400000 155.23200000 176.16300000
O 140.58000000 153.14100000 176.16300000
O 140.58000000 155.23200000 174.07200000
Ni 140.58000000 153.14100000 178.25700000
Ni 142.67400000 155.23200000 178.25700000
O 142.67400000 153.14100000 178.25700000
Ni 140.58000000 157.32600000 123.83700000
Ni 140.58000000 159.42000000 125.92800000
Ni 142.67400000 157.32600000 125.92800000
Ni 142.67400000 159.42000000 123.83700000
O 142.67400000 157.32600000 123.83700000
O 142.67400000 159.42000000 125.92800000
O 140.58000000 157.32600000 125.92800000
O 140.58000000 159.42000000 123.83700000
Ni 140.58000000 157.32600000 128.02200000
Ni 140.58000000 159.42000000 130.11600000
Ni 142.67400000 157.32600000 130.11600000
Ni 142.67400000 159.42000000 128.02200000
O 142.67400000 157.32600000 128.02200000
O 142.67400000 159.42000000 130.11600000
O 140.58000000 157.32600000 130.11600000
O 140.58000000 159.42000000 128.02200000
Ni 140.58000000 157.32600000 132.20700000
Ni 140.58000000 159.42000000 134.30100000
Ni 142.67400000 157.32600000 134.30100000
Ni 142.67400000 159.42000000 132.20700000
O 142.67400000 157.32600000 132.20700000
O 142.67400000 159.42000000 134.30100000
O 140.58000000 157.32600000 134.30100000
O 140.58000000 159.42000000 132.20700000
Ni 140.58000000 157.32600000 136.39500000
Ni 140.58000000 159.42000000 138.48900000
Ni 142.67400000 157.32600000 138.48900000
Ni 142.67400000 159.42000000 136.39500000
O 142.67400000 157.32600000 136.39500000
O 142.67400000 159.42000000 138.48900000
O 140.58000000 157.32600000 138.48900000
O 140.58000000 159.42000000 136.39500000
Ni 140.58000000 157.32600000 140.58000000
Ni 140.58000000 159.42000000 142.67400000
Ni 142.67400000 157.32600000 142.67400000
Ni 142.67400000 159.42000000 140.58000000
O 142.67400000 157.32600000 140.58000000
O 142.67400000 159.42000000 142.67400000
O 140.58000000 157.32600000 142.67400000
O 140.58000000 159.42000000 140.58000000
Ni 140.58000000 157.32600000 144.76800000
Ni 140.58000000 159.42000000 146.85900000
Ni 142.67400000 157.32600000 146.85900000
Ni 142.67400000 159.42000000 144.76800000
O 142.67400000 157.32600000 144.76800000
O 142.67400000 159.42000000 146.85900000
O 140.58000000 157.32600000 146.85900000
O 140.58000000 159.42000000 144.76800000
Ni 140.58000000 157.32600000 148.95300000
Ni 140.58000000 159.42000000 151.04700000
Ni 142.67400000 157.32600000 151.04700000
Ni 142.67400000 159.42000000 148.95300000
O 142.67400000 157.32600000 148.95300000
O 142.67400000 159.42000000 151.04700000
O 140.58000000 157.32600000 151.04700000
O 140.58000000 159.42000000 148.95300000
Ni 140.58000000 157.32600000 153.14100000
Ni 140.58000000 159.42000000 155.23200000
Ni 142.67400000 157.32600000 155.23200000
Ni 142.67400000 159.42000000 153.14100000
O 142.67400000 157.32600000 153.14100000
O 142.67400000 159.42000000 155.23200000
O 140.58000000 157.32600000 155.23200000
O 140.58000000 159.42000000 153.14100000
Ni 140.58000000 157.32600000 157.32600000
Ni 140.58000000 159.42000000 159.42000000
Ni 142.67400000 157.32600000 159.42000000
Ni 142.67400000 159.42000000 157.32600000
O 142.67400000 157.32600000 157.32600000
O 142.67400000 159.42000000 159.42000000
O 140.58000000 157.32600000 159.42000000
O 140.58000000 159.42000000 157.32600000
Ni 140.58000000 157.32600000 161.51100000
Ni 140.58000000 159.42000000 163.60500000
Ni 142.67400000 157.32600000 163.60500000
Ni 142.67400000 159.42000000 161.51100000
O 142.67400000 157.32600000 161.51100000
O 142.67400000 159.42000000 163.60500000
O 140.58000000 157.32600000 163.60500000
O 140.58000000 159.42000000 161.51100000
Ni 140.58000000 157.32600000 165.69900000
Ni 140.58000000 159.42000000 167.79300000
Ni 142.67400000 157.32600000 167.79300000
Ni 142.67400000 159.42000000 165.69900000
O 142.67400000 157.32600000 165.69900000
O 142.67400000 159.42000000 167.79300000
O 140.58000000 157.32600000 167.79300000
O 140.58000000 159.42000000 165.69900000
Ni 140.58000000 157.32600000 169.88400000
Ni 140.58000000 159.42000000 171.97800000
Ni 142.67400000 157.32600000 171.97800000
Ni 142.67400000 159.42000000 169.88400000
O 142.67400000 157.32600000 169.88400000
O 142.67400000 159.42000000 171.97800000
O 140.58000000 157.32600000 171.97800000
O 140.58000000 159.42000000 169.88400000
Ni 140.58000000 157.32600000 174.07200000
Ni 140.58000000 159.42000000 176.16300000
Ni 142.67400000 157.32600000 176.16300000
Ni 142.67400000 159.42000000 174.07200000
O 142.67400000 157.32600000 174.07200000
O 142.67400000 159.42000000 176.16300000
O 140.58000000 157.32600000 176.16300000
O 140.58000000 159.42000000 174.07200000
Ni 140.58000000 163.60500000 125.92800000
Ni 142.67400000 161.51100000 125.92800000
O 142.67400000 161.51100000 123.83700000
O 142.67400000 163.60500000 125.92800000
O 140.58000000 161.51100000 125.92800000
Ni 140.58000000 161.51100000 128.02200000
Ni 140.58000000 163.60500000 130.11600000
Ni 142.67400000 161.51100000 130.11600000
Ni 142.67400000 163.60500000 128.02200000
O 142.67400000 161.51100000 128.02200000
O 142.67400000 163.60500000 130.11600000
O 140.58000000 161.51100000 130.11600000
O 140.58000000 163.60500000 128.02200000
Ni 140.58000000 161.51100000 132.20700000
Ni 140.58000000 163.60500000 134.30100000
Ni 142.67400000 161.51100000 134.30100000
Ni 142.67400000 163.60500000 132.20700000
O 142.67400000 161.51100000 132.20700000
O 142.67400000 163.60500000 134.30100000
O 140.58000000 161.51100000 134.30100000
O 140.58000000 163.60500000 132.20700000
Ni 140.58000000 161.51100000 136.39500000
Ni 140.58000000 163.60500000 138.48900000
Ni 142.67400000 161.51100000 138.48900000
Ni 142.67400000 163.60500000 136.39500000
O 142.67400000 161.51100000 136.39500000
O 142.67400000 163.60500000 138.48900000
O 140.58000000 161.51100000 138.48900000
O 140.58000000 163.60500000 136.39500000
Ni 140.58000000 161.51100000 140.58000000
Ni 140.58000000 163.60500000 142.67400000
Ni 142.67400000 161.51100000 142.67400000
Ni 142.67400000 163.60500000 140.58000000
O 142.67400000 161.51100000 140.58000000
O 142.67400000 163.60500000 142.67400000
O 140.58000000 161.51100000 142.67400000
O 140.58000000 163.60500000 140.58000000
Ni 140.58000000 161.51100000 144.76800000
Ni 140.58000000 163.60500000 146.85900000
Ni 142.67400000 161.51100000 146.85900000
Ni 142.67400000 163.60500000 144.76800000
O 142.67400000 161.51100000 144.76800000
O 142.67400000 163.60500000 146.85900000
O 140.58000000 161.51100000 146.85900000
O 140.58000000 163.60500000 144.76800000
Ni 140.58000000 161.51100000 148.95300000
Ni 140.58000000 163.60500000 151.04700000
Ni 142.67400000 161.51100000 151.04700000
Ni 142.67400000 163.60500000 148.95300000
O 142.67400000 161.51100000 148.95300000
O 142.67400000 163.60500000 151.04700000
O 140.58000000 161.51100000 151.04700000
O 140.58000000 163.60500000 148.95300000
Ni 140.58000000 161.51100000 153.14100000
Ni 140.58000000 163.60500000 155.23200000
Ni 142.67400000 161.51100000 155.23200000
Ni 142.67400000 163.60500000 153.14100000
O 142.67400000 161.51100000 153.14100000
O 142.67400000 163.60500000 155.23200000
O 140.58000000 161.51100000 155.23200000
O 140.58000000 163.60500000 153.14100000
Ni 140.58000000 161.51100000 157.32600000
Ni 140.58000000 163.60500000 159.42000000
Ni 142.67400000 161.51100000 159.42000000
Ni 142.67400000 163.60500000 157.32600000
O 142.67400000 161.51100000 157.32600000
O 142.67400000 163.60500000 159.42000000
O 140.58000000 161.51100000 159.42000000
O 140.58000000 163.60500000 157.32600000
Ni 140.58000000 161.51100000 161.51100000
Ni 140.58000000 163.60500000 163.60500000
Ni 142.67400000 161.51100000 163.60500000
Ni 142.67400000 163.60500000 161.51100000
O 142.67400000 161.51100000 161.51100000
O 142.67400000 163.60500000 163.60500000
O 140.58000000 161.51100000 163.60500000
O 140.58000000 163.60500000 161.51100000
Ni 140.58000000 161.51100000 165.69900000
Ni 140.58000000 163.60500000 167.79300000
Ni 142.67400000 161.51100000 167.79300000
Ni 142.67400000 163.60500000 165.69900000
O 142.67400000 161.51100000 165.69900000
O 142.67400000 163.60500000 167.79300000
O 140.58000000 161.51100000 167.79300000
O 140.58000000 163.60500000 165.69900000
Ni 140.58000000 161.51100000 169.88400000
Ni 140.58000000 163.60500000 171.97800000
Ni 142.67400000 161.51100000 171.97800000
Ni 142.67400000 163.60500000 169.88400000
O 142.67400000 161.51100000 169.88400000
O 142.67400000 163.60500000 171.97800000
O 140.58000000 161.51100000 171.97800000
O 140.58000000 163.60500000 169.88400000
Ni 140.58000000 161.51100000 174.07200000
Ni 142.67400000 161.51100000 176.16300000
Ni 142.67400000 163.60500000 174.07200000
O 142.67400000 161.51100000 174.07200000
O 140.58000000 163.60500000 174.07200000
Ni 142.67400000 165.69900000 125.92800000
Ni 140.58000000 165.69900000 128.02200000
Ni 140.58000000 167.79300000 130.11600000
Ni 142.67400000 165.69900000 130.11600000
Ni 142.67400000 167.79300000 128.02200000
O 142.67400000 165.69900000 128.02200000
O 142.67400000 167.79300000 130.11600000
O 140.58000000 165.69900000 130.11600000
O 140.58000000 167.79300000 128.02200000
Ni 140.58000000 165.69900000 132.20700000
Ni 140.58000000 167.79300000 134.30100000
Ni 142.67400000 165.69900000 134.30100000
Ni 142.67400000 167.79300000 132.20700000
O 142.67400000 165.69900000 132.20700000
O 142.67400000 167.79300000 134.30100000
O 140.58000000 165.69900000 134.30100000
O 140.58000000 167.79300000 132.20700000
Ni 140.58000000 165.69900000 136.39500000
Ni 140.58000000 167.79300000 138.48900000
Ni 142.67400000 165.69900000 138.48900000
Ni 142.67400000 167.79300000 136.39500000
O 142.67400000 165.69900000 136.39500000
O 142.67400000 167.79300000 138.48900000
O 140.58000000 165.69900000 138.48900000
O 140.58000000 167.79300000 136.39500000
Ni 140.58000000 165.69900000 140.58000000
Ni 140.58000000 167.79300000 142.67400000
Ni 142.67400000 165.69900000 142.67400000
Ni 142.67400000 167.79300000 140.58000000
O 142.67400000 165.69900000 140.58000000
O 142.67400000 167.79300000 142.67400000
O 140.58000000 165.69900000 142.67400000
O 140.58000000 167.79300000 140.58000000
Ni 140.58000000 165.69900000 144.76800000
Ni 140.58000000 167.79300000 146.85900000
Ni 142.67400000 165.69900000 146.85900000
Ni 142.67400000 167.79300000 144.76800000
O 142.67400000 165.69900000 144.76800000
O 142.67400000 167.79300000 146.85900000
O 140.58000000 165.69900000 146.85900000
O 140.58000000 167.79300000 144.76800000
Ni 140.58000000 165.69900000 148.95300000
Ni 140.58000000 167.79300000 151.04700000
Ni 142.67400000 165.69900000 151.04700000
Ni 142.67400000 167.79300000 148.95300000
O 142.67400000 165.69900000 148.95300000
O 142.67400000 167.79300000 151.04700000
O 140.58000000 165.69900000 151.04700000
O 140.58000000 167.79300000 148.95300000
Ni 140.58000000 165.69900000 153.14100000
Ni 140.58000000 167.79300000 155.23200000
Ni 142.67400000 165.69900000 155.23200000
Ni 142.67400000 167.79300000 153.14100000
O 142.67400000 165.69900000 153.14100000
O 142.67400000 167.79300000 155.23200000
O 140.58000000 165.69900000 155.23200000
O 140.58000000 167.79300000 153.14100000
Ni 140.58000000 165.69900000 157.32600000
Ni 140.58000000 167.79300000 159.42000000
Ni 142.67400000 165.69900000 159.42000000
Ni 142.67400000 167.79300000 157.32600000
O 142.67400000 165.69900000 157.32600000
O 142.67400000 167.79300000 159.42000000
O 140.58000000 165.69900000 159.42000000
O 140.58000000 167.79300000 157.32600000
Ni 140.58000000 165.69900000 161.51100000
Ni 140.58000000 167.79300000 163.60500000
Ni 142.67400000 165.69900000 163.60500000
Ni 142.67400000 167.79300000 161.51100000
O 142.67400000 165.69900000 161.51100000
O 142.67400000 167.79300000 163.60500000
O 140.58000000 165.69900000 163.60500000
O 140.58000000 167.79300000 161.51100000
Ni 140.58000000 165.69900000 165.69900000
Ni 140.58000000 167.79300000 167.79300000
Ni 142.67400000 165.69900000 167.79300000
Ni 142.67400000 167.79300000 165.69900000
O 142.67400000 165.69900000 165.69900000
O 142.67400000 167.79300000 167.79300000
O 140.58000000 165.69900000 167.79300000
O 140.58000000 167.79300000 165.69900000
Ni 140.58000000 165.69900000 169.88400000
Ni 140.58000000 167.79300000 171.97800000
Ni 142.67400000 165.69900000 171.97800000
Ni 142.67400000 167.79300000 169.88400000
O 142.67400000 165.69900000 169.88400000
O 142.67400000 167.79300000 171.97800000
O 140.58000000 165.69900000 171.97800000
O 140.58000000 167.79300000 169.88400000
O 142.67400000 165.69900000 174.07200000
Ni 142.67400000 169.88400000 130.11600000
O 140.58000000 169.88400000 130.11600000
Ni 140.58000000 169.88400000 132.20700000
Ni 140.58000000 171.97800000 134.30100000
Ni 142.67400000 169.88400000 134.30100000
Ni 142.67400000 171.97800000 132.20700000
O 142.67400000 169.88400000 132.20700000
O 142.67400000 171.97800000 134.30100000
O 140.58000000 169.88400000 134.30100000
O 140.58000000 171.97800000 132.20700000
Ni 140.58000000 169.88400000 136.39500000
Ni 140.58000000 171.97800000 138.48900000
Ni 142.67400000 169.88400000 138.48900000
Ni 142.67400000 171.97800000 136.39500000
O 142.67400000 169.88400000 136.39500000
O 142.67400000 171.97800000 138.48900000
O 140.58000000 169.88400000 138.48900000
O 140.58000000 171.97800000 136.39500000
Ni 140.58000000 169.88400000 140.58000000
Ni 140.58000000 171.97800000 142.67400000
Ni 142.67400000 169.88400000 142.67400000
Ni 142.67400000 171.97800000 140.58000000
O 142.67400000 169.88400000 140.58000000
O 142.67400000 171.97800000 142.67400000
O 140.58000000 169.88400000 142.67400000
O 140.58000000 171.97800000 140.58000000
Ni 140.58000000 169.88400000 144.76800000
Ni 140.58000000 171.97800000 146.85900000
Ni 142.67400000 169.88400000 146.85900000
Ni 142.67400000 171.97800000 144.76800000
O 142.67400000 169.88400000 144.76800000
O 142.67400000 171.97800000 146.85900000
O 140.58000000 169.88400000 146.85900000
O 140.58000000 171.97800000 144.76800000
Ni 140.58000000 169.88400000 148.95300000
Ni 140.58000000 171.97800000 151.04700000
Ni 142.67400000 169.88400000 151.04700000
Ni 142.67400000 171.97800000 148.95300000
O 142.67400000 169.88400000 148.95300000
O 142.67400000 171.97800000 151.04700000
O 140.58000000 169.88400000 151.04700000
O 140.58000000 171.97800000 148.95300000
Ni 140.58000000 169.88400000 153.14100000
Ni 140.58000000 171.97800000 155.23200000
Ni 142.67400000 169.88400000 155.23200000
Ni 142.67400000 171.97800000 153.14100000
O 142.67400000 169.88400000 153.14100000
O 142.67400000 171.97800000 155.23200000
O 140.58000000 169.88400000 155.23200000
O 140.58000000 171.97800000 153.14100000
Ni 140.58000000 169.88400000 157.32600000
Ni 140.58000000 171.97800000 159.42000000
Ni 142.67400000 169.88400000 159.42000000
Ni 142.67400000 171.97800000 157.32600000
O 142.67400000 169.88400000 157.32600000
O 142.67400000 171.97800000 159.42000000
O 140.58000000 169.88400000 159.42000000
O 140.58000000 171.97800000 157.32600000
Ni 140.58000000 169.88400000 161.51100000
Ni 140.58000000 171.97800000 163.60500000
Ni 142.67400000 169.88400000 163.60500000
Ni 142.67400000 171.97800000 161.51100000
O 142.67400000 169.88400000 161.51100000
O 142.67400000 171.97800000 163.60500000
O 140.58000000 169.88400000 163.60500000
O 140.58000000 171.97800000 161.51100000
Ni 140.58000000 169.88400000 165.69900000
Ni 140.58000000 171.97800000 167.79300000
Ni 142.67400000 169.88400000 167.79300000
Ni 142.67400000 171.97800000 165.69900000
O 142.67400000 169.88400000 165.69900000
O 142.67400000 171.97800000 167.79300000
O 140.58000000 169.88400000 167.79300000
O 140.58000000 171.97800000 165.69900000
Ni 140.58000000 169.88400000 169.88400000
O 142.67400000 169.88400000 169.88400000
Ni 142.67400000 174.07200000 134.30100000
Ni 140.58000000 174.07200000 136.39500000
Ni 142.67400000 174.07200000 138.48900000
O 142.67400000 174.07200000 136.39500000
O 142.67400000 176.16300000 138.48900000
O 140.58000000 174.07200000 138.48900000
Ni 140.58000000 174.07200000 140.58000000
Ni 140.58000000 176.16300000 142.67400000
Ni 142.67400000 174.07200000 142.67400000
Ni 142.67400000 176.16300000 140.58000000
O 142.67400000 174.07200000 140.58000000
O 142.67400000 176.16300000 142.67400000
O 140.58000000 174.07200000 142.67400000
O 140.58000000 176.16300000 140.58000000
Ni 140.58000000 174.07200000 144.76800000
Ni 140.58000000 176.16300000 146.85900000
Ni 142.67400000 174.07200000 146.85900000
Ni 142.67400000 176.16300000 144.76800000
O 142.67400000 174.07200000 144.76800000
O 142.67400000 176.16300000 146.85900000
O 140.58000000 174.07200000 146.85900000
O 140.58000000 176.16300000 144.76800000
Ni 140.58000000 174.07200000 148.95300000
Ni 140.58000000 176.16300000 151.04700000
Ni 142.67400000 174.07200000 151.04700000
Ni 142.67400000 176.16300000 148.95300000
O 142.67400000 174.07200000 148.95300000
O 142.67400000 176.16300000 151.04700000
O 140.58000000 174.07200000 151.04700000
O 140.58000000 176.16300000 148.95300000
Ni 140.58000000 174.07200000 153.14100000
Ni 140.58000000 176.16300000 155.23200000
Ni 142.67400000 174.07200000 155.23200000
Ni 142.67400000 176.16300000 153.14100000
O 142.67400000 174.07200000 153.14100000
O 142.67400000 176.16300000 155.23200000
O 140.58000000 174.07200000 155.23200000
O 140.58000000 176.16300000 153.14100000
Ni 140.58000000 174.07200000 157.32600000
Ni 140.58000000 176.16300000 159.42000000
Ni 142.67400000 174.07200000 159.42000000
Ni 142.67400000 176.16300000 157.32600000
O 142.67400000 174.07200000 157.32600000
O 142.67400000 176.16300000 159.42000000
O 140.58000000 174.07200000 159.42000000
O 140.58000000 176.16300000 157.32600000
Ni 140.58000000 174.07200000 161.51100000
Ni 142.67400000 174.07200000 163.60500000
Ni 142.67400000 176.16300000 161.51100000
O 142.67400000 174.07200000 161.51100000
O 140.58000000 174.07200000 163.60500000
O 142.67400000 174.07200000 165.69900000
Ni 142.67400000 178.25700000 146.85900000
O 142.67400000 178.25700000 144.76800000
O 140.58000000 178.25700000 146.85900000
Ni 140.58000000 178.25700000 148.95300000
Ni 142.67400000 178.25700000 151.04700000
O 142.67400000 178.25700000 148.95300000
O 140.58000000 178.25700000 151.04700000
Ni 140.58000000 178.25700000 153.14100000
Ni 142.67400000 178.25700000 155.23200000
O 142.67400000 178.25700000 153.14100000
Ni 144.76800000 121.74300000 142.67400000
Ni 146.85900000 121.74300000 140.58000000
O 146.85900000 121.74300000 142.67400000
Ni 144.76800000 121.74300000 146.85900000
Ni 146.85900000 121.74300000 144.76800000
O 146.85900000 121.74300000 146.85900000
O 144.76800000 121.74300000 144.76800000
Ni 144.76800000 121.74300000 151.04700000
Ni 146.85900000 121.74300000 148.95300000
O 146.85900000 121.74300000 151.04700000
O 144.76800000 121.74300000 148.95300000
Ni 144.76800000 121.74300000 155.23200000
Ni 146.85900000 121.74300000 153.14100000
O 146.85900000 121.74300000 155.23200000
O 144.76800000 121.74300000 153.14100000
Ni 146.85900000 121.74300000 157.32600000
O 146.85900000 121.74300000 159.42000000
O 144.76800000 121.74300000 157.32600000
Ni 144.76800000 125.92800000 134.30100000
O 146.85900000 125.92800000 134.30100000
Ni 144.76800000 123.83700000 136.39500000
Ni 144.76800000 125.92800000 138.48900000
Ni 146.85900000 123.83700000 138.48900000
Ni 146.85900000 125.92800000 136.39500000
O 146.85900000 123.83700000 136.39500000
O 146.85900000 125.92800000 138.48900000
O 144.76800000 123.83700000 138.48900000
O 144.76800000 125.92800000 136.39500000
Ni 144.76800000 123.83700000 140.58000000
Ni 144.76800000 125.92800000 142.67400000
Ni 146.85900000 123.83700000 142.67400000
Ni 146.85900000 125.92800000 140.58000000
O 146.85900000 123.83700000 140.58000000
O 146.85900000 125.92800000 142.67400000
O 144.76800000 123.83700000 142.67400000
O 144.76800000 125.92800000 140.58000000
Ni 144.76800000 123.83700000 144.76800000
Ni 144.76800000 125.92800000 146.85900000
Ni 146.85900000 123.83700000 146.85900000
Ni 146.85900000 125.92800000 144.76800000
O 146.85900000 123.83700000 144.76800000
O 146.85900000 125.92800000 146.85900000
O 144.76800000 123.83700000 146.85900000
O 144.76800000 125.92800000 144.76800000
Ni 144.76800000 123.83700000 148.95300000
Ni 144.76800000 125.92800000 151.04700000
Ni 146.85900000 123.83700000 151.04700000
Ni 146.85900000 125.92800000 148.95300000
O 146.85900000 123.83700000 148.95300000
O 146.85900000 125.92800000 151.04700000
O 144.76800000 123.83700000 151.04700000
O 144.76800000 125.92800000 148.95300000
Ni 144.76800000 123.83700000 153.14100000
Ni 144.76800000 125.92800000 155.23200000
Ni 146.85900000 123.83700000 155.23200000
Ni 146.85900000 125.92800000 153.14100000
O 146.85900000 123.83700000 153.14100000
O 146.85900000 125.92800000 155.23200000
O 144.76800000 123.83700000 155.23200000
O 144.76800000 125.92800000 153.14100000
Ni 144.76800000 123.83700000 157.32600000
Ni 144.76800000 125.92800000 159.42000000
Ni 146.85900000 123.83700000 159.42000000
Ni 146.85900000 125.92800000 157.32600000
O 146.85900000 123.83700000 157.32600000
O 146.85900000 125.92800000 159.42000000
O 144.76800000 123.83700000 159.42000000
O 144.76800000 125.92800000 157.32600000
Ni 144.76800000 123.83700000 161.51100000
Ni 144.76800000 125.92800000 163.60500000
Ni 146.85900000 123.83700000 163.60500000
Ni 146.85900000 125.92800000 161.51100000
O 146.85900000 123.83700000 161.51100000
O 146.85900000 125.92800000 163.60500000
O 144.76800000 123.83700000 163.60500000
O 144.76800000 125.92800000 161.51100000
Ni 146.85900000 125.92800000 165.69900000
O 144.76800000 125.92800000 165.69900000
Ni 144.76800000 130.11600000 130.11600000
Ni 146.85900000 128.02200000 130.11600000
Ni 146.85900000 130.11600000 128.02200000
O 146.85900000 130.11600000 130.11600000
Ni 144.76800000 128.02200000 132.20700000
Ni 144.76800000 130.11600000 134.30100000
Ni 146.85900000 128.02200000 134.30100000
Ni 146.85900000 130.11600000 132.20700000
O 146.85900000 128.02200000 132.20700000
O 146.85900000 130.11600000 134.30100000
O 144.76800000 128.02200000 134.30100000
O 144.76800000 130.11600000 132.20700000
Ni 144.76800000 128.02200000 136.39500000
Ni 144.76800000 130.11600000 138.48900000
Ni 146.85900000 128.02200000 138.48900000
Ni 146.85900000 130.11600000 136.39500000
O 146.85900000 128.02200000 136.39500000
O 146.85900000 130.11600000 138.48900000
O 144.76800000 128.02200000 138.48900000
O 144.76800000 130.11600000 136.39500000
Ni 144.76800000 128.02200000 140.58000000
Ni 144.76800000 130.11600000 142.67400000
Ni 146.85900000 128.02200000 142.67400000
Ni 146.85900000 130.11600000 140.58000000
O 146.85900000 128.02200000 140.58000000
O 146.85900000 130.11600000 142.67400000
O 144.76800000 128.02200000 142.67400000
O 144.76800000 130.11600000 140.58000000
Ni 144.76800000 128.02200000 144.76800000
Ni 144.76800000 130.11600000 146.85900000
Ni 146.85900000 128.02200000 146.85900000
Ni 146.85900000 130.11600000 144.76800000
O 146.85900000 128.02200000 144.76800000
O 146.85900000 130.11600000 146.85900000
O 144.76800000 128.02200000 146.85900000
O 144.76800000 130.11600000 144.76800000
Ni 144.76800000 128.02200000 148.95300000
Ni 144.76800000 130.11600000 151.04700000
Ni 146.85900000 128.02200000 151.04700000
Ni 146.85900000 130.11600000 148.95300000
O 146.85900000 128.02200000 148.95300000
O 146.85900000 130.11600000 151.04700000
O 144.76800000 128.02200000 151.04700000
O 144.76800000 130.11600000 148.95300000
Ni 144.76800000 128.02200000 153.14100000
Ni 144.76800000 130.11600000 155.23200000
Ni 146.85900000 128.02200000 155.23200000
Ni 146.85900000 130.11600000 153.14100000
O 146.85900000 128.02200000 153.14100000
O 146.85900000 130.11600000 155.23200000
O 144.76800000 128.02200000 155.23200000
O 144.76800000 130.11600000 153.14100000
Ni 144.76800000 128.02200000 157.32600000
Ni 144.76800000 130.11600000 159.42000000
Ni 146.85900000 128.02200000 159.42000000
Ni 146.85900000 130.11600000 157.32600000
O 146.85900000 128.02200000 157.32600000
O 146.85900000 130.11600000 159.42000000
O 144.76800000 128.02200000 159.42000000
O 144.76800000 130.11600000 157.32600000
Ni 144.76800000 128.02200000 161.51100000
Ni 144.76800000 130.11600000 163.60500000
Ni 146.85900000 128.02200000 163.60500000
Ni 146.85900000 130.11600000 161.51100000
O 146.85900000 128.02200000 161.51100000
O 146.85900000 130.11600000 163.60500000
O 144.76800000 128.02200000 163.60500000
O 144.76800000 130.11600000 161.51100000
Ni 144.76800000 128.02200000 165.69900000
Ni 144.76800000 130.11600000 167.79300000
Ni 146.85900000 128.02200000 167.79300000
Ni 146.85900000 130.11600000 165.69900000
O 146.85900000 128.02200000 165.69900000
O 146.85900000 130.11600000 167.79300000
O 144.76800000 128.02200000 167.79300000
O 144.76800000 130.11600000 165.69900000
Ni 146.85900000 130.11600000 169.88400000
O 146.85900000 128.02200000 169.88400000
O 146.85900000 130.11600000 171.97800000
O 144.76800000 130.11600000 169.88400000
Ni 144.76800000 134.30100000 125.92800000
O 146.85900000 134.30100000 125.92800000
Ni 144.76800000 132.20700000 128.02200000
Ni 144.76800000 134.30100000 130.11600000
Ni 146.85900000 132.20700000 130.11600000
Ni 146.85900000 134.30100000 128.02200000
O 146.85900000 132.20700000 128.02200000
O 146.85900000 134.30100000 130.11600000
O 144.76800000 132.20700000 130.11600000
O 144.76800000 134.30100000 128.02200000
Ni 144.76800000 132.20700000 132.20700000
Ni 144.76800000 134.30100000 134.30100000
Ni 146.85900000 132.20700000 134.30100000
Ni 146.85900000 134.30100000 132.20700000
O 146.85900000 132.20700000 132.20700000
O 146.85900000 134.30100000 134.30100000
O 144.76800000 132.20700000 134.30100000
O 144.76800000 134.30100000 132.20700000
Ni 144.76800000 132.20700000 136.39500000
Ni 144.76800000 134.30100000 138.48900000
Ni 146.85900000 132.20700000 138.48900000
Ni 146.85900000 134.30100000 136.39500000
O 146.85900000 132.20700000 136.39500000
O 146.85900000 134.30100000 138.48900000
O 144.76800000 132.20700000 138.48900000
O 144.76800000 134.30100000 136.39500000
Ni 144.76800000 132.20700000 140.58000000
Ni 144.76800000 134.30100000 142.67400000
Ni 146.85900000 132.20700000 142.67400000
Ni 146.85900000 134.30100000 140.58000000
O 146.85900000 132.20700000 140.58000000
O 146.85900000 134.30100000 142.67400000
O 144.76800000 132.20700000 142.67400000
O 144.76800000 134.30100000 140.58000000
Ni 144.76800000 132.20700000 144.76800000
Ni 144.76800000 134.30100000 146.85900000
Ni 146.85900000 132.20700000 146.85900000
Ni 146.85900000 134.30100000 144.76800000
O 146.85900000 132.20700000 144.76800000
O 146.85900000 134.30100000 146.85900000
O 144.76800000 132.20700000 146.85900000
O 144.76800000 134.30100000 144.76800000
Ni 144.76800000 132.20700000 148.95300000
Ni 144.76800000 134.30100000 151.04700000
Ni 146.85900000 132.20700000 151.04700000
Ni 146.85900000 134.30100000 148.95300000
O 146.85900000 132.20700000 148.95300000
O 146.85900000 134.30100000 151.04700000
O 144.76800000 132.20700000 151.04700000
O 144.76800000 134.30100000 148.95300000
Ni 144.76800000 132.20700000 153.14100000
Ni 144.76800000 134.30100000 155.23200000
Ni 146.85900000 132.20700000 155.23200000
Ni 146.85900000 134.30100000 153.14100000
O 146.85900000 132.20700000 153.14100000
O 146.85900000 134.30100000 155.23200000
O 144.76800000 132.20700000 155.23200000
O 144.76800000 134.30100000 153.14100000
Ni 144.76800000 132.20700000 157.32600000
Ni 144.76800000 134.30100000 159.42000000
Ni 146.85900000 132.20700000 159.42000000
Ni 146.85900000 134.30100000 157.32600000
O 146.85900000 132.20700000 157.32600000
O 146.85900000 134.30100000 159.42000000
O 144.76800000 132.20700000 159.42000000
O 144.76800000 134.30100000 157.32600000
Ni 144.76800000 132.20700000 161.51100000
Ni 144.76800000 134.30100000 163.60500000
Ni 146.85900000 132.20700000 163.60500000
Ni 146.85900000 134.30100000 161.51100000
O 146.85900000 132.20700000 161.51100000
O 146.85900000 134.30100000 163.60500000
O 144.76800000 132.20700000 163.60500000
O 144.76800000 134.30100000 161.51100000
Ni 144.76800000 132.20700000 165.69900000
Ni 144.76800000 134.30100000 167.79300000
Ni 146.85900000 132.20700000 167.79300000
Ni 146.85900000 134.30100000 165.69900000
O 146.85900000 132.20700000 165.69900000
O 146.85900000 134.30100000 167.79300000
O 144.76800000 132.20700000 167.79300000
O 144.76800000 134.30100000 165.69900000
Ni 144.76800000 132.20700000 169.88400000
Ni 144.76800000 134.30100000 171.97800000
Ni 146.85900000 132.20700000 171.97800000
Ni 146.85900000 134.30100000 169.88400000
O 146.85900000 132.20700000 169.88400000
O 146.85900000 134.30100000 171.97800000
O 144.76800000 132.20700000 171.97800000
O 144.76800000 134.30100000 169.88400000
Ni 146.85900000 134.30100000 174.07200000
O 144.76800000 134.30100000 174.07200000
Ni 144.76800000 136.39500000 123.83700000
Ni 144.76800000 138.48900000 125.92800000
Ni 146.85900000 136.39500000 125.92800000
Ni 146.85900000 138.48900000 123.83700000
O 146.85900000 136.39500000 123.83700000
O 146.85900000 138.48900000 125.92800000
O 144.76800000 136.39500000 125.92800000
O 144.76800000 138.48900000 123.83700000
Ni 144.76800000 136.39500000 128.02200000
Ni 144.76800000 138.48900000 130.11600000
Ni 146.85900000 136.39500000 130.11600000
Ni 146.85900000 138.48900000 128.02200000
O 146.85900000 136.39500000 128.02200000
O 146.85900000 138.48900000 130.11600000
O 144.76800000 136.39500000 130.11600000
O 144.76800000 138.48900000 128.02200000
Ni 144.76800000 136.39500000 132.20700000
Ni 144.76800000 138.48900000 134.30100000
Ni 146.85900000 136.39500000 134.30100000
Ni 146.85900000 138.48900000 132.20700000
O 146.85900000 136.39500000 132.20700000
O 146.85900000 138.48900000 134.30100000
O 144.76800000 136.39500000 134.30100000
O 144.76800000 138.48900000 132.20700000
Ni 144.76800000 136.39500000 136.39500000
Ni 144.76800000 138.48900000 138.48900000
Ni 146.85900000 136.39500000 138.48900000
Ni 146.85900000 138.48900000 136.39500000
O 146.85900000 136.39500000 136.39500000
O 146.85900000 138.48900000 138.48900000
O 144.76800000 136.39500000 138.48900000
O 144.76800000 138.48900000 136.39500000
Ni 144.76800000 136.39500000 140.58000000
Ni 144.76800000 138.48900000 142.67400000
Ni 146.85900000 136.39500000 142.67400000
Ni 146.85900000 138.48900000 140.58000000
O 146.85900000 136.39500000 140.58000000
O 146.85900000 138.48900000 142.67400000
O 144.76800000 136.39500000 142.67400000
O 144.76800000 138.48900000 140.58000000
Ni 144.76800000 136.39500000 144.76800000
Ni 144.76800000 138.48900000 146.85900000
Ni 146.85900000 136.39500000 146.85900000
Ni 146.85900000 138.48900000 144.76800000
O 146.85900000 136.39500000 144.76800000
O 146.85900000 138.48900000 146.85900000
O 144.76800000 136.39500000 146.85900000
O 144.76800000 138.48900000 144.76800000
Ni 144.76800000 136.39500000 148.95300000
Ni 144.76800000 138.48900000 151.04700000
Ni 146.85900000 136.39500000 151.04700000
Ni 146.85900000 138.48900000 148.95300000
O 146.85900000 136.39500000 148.95300000
O 146.85900000 138.48900000 151.04700000
O 144.76800000 136.39500000 151.04700000
O 144.76800000 138.48900000 148.95300000
Ni 144.76800000 136.39500000 153.14100000
Ni 144.76800000 138.48900000 155.23200000
Ni 146.85900000 136.39500000 155.23200000
Ni 146.85900000 138.48900000 153.14100000
O 146.85900000 136.39500000 153.14100000
O 146.85900000 138.48900000 155.23200000
O 144.76800000 136.39500000 155.23200000
O 144.76800000 138.48900000 153.14100000
Ni 144.76800000 136.39500000 157.32600000
Ni 144.76800000 138.48900000 159.42000000
Ni 146.85900000 136.39500000 159.42000000
Ni 146.85900000 138.48900000 157.32600000
O 146.85900000 136.39500000 157.32600000
O 146.85900000 138.48900000 159.42000000
O 144.76800000 136.39500000 159.42000000
O 144.76800000 138.48900000 157.32600000
Ni 144.76800000 136.39500000 161.51100000
Ni 144.76800000 138.48900000 163.60500000
Ni 146.85900000 136.39500000 163.60500000
Ni 146.85900000 138.48900000 161.51100000
O 146.85900000 136.39500000 161.51100000
O 146.85900000 138.48900000 163.60500000
O 144.76800000 136.39500000 163.60500000
O 144.76800000 138.48900000 161.51100000
Ni 144.76800000 136.39500000 165.69900000
Ni 144.76800000 138.48900000 167.79300000
Ni 146.85900000 136.39500000 167.79300000
Ni 146.85900000 138.48900000 165.69900000
O 146.85900000 136.39500000 165.69900000
O 146.85900000 138.48900000 167.79300000
O 144.76800000 136.39500000 167.79300000
O 144.76800000 138.48900000 165.69900000
Ni 144.76800000 136.39500000 169.88400000
Ni 144.76800000 138.48900000 171.97800000
Ni 146.85900000 136.39500000 171.97800000
Ni 146.85900000 138.48900000 169.88400000
O 146.85900000 136.39500000 169.88400000
O 146.85900000 138.48900000 171.97800000
O 144.76800000 136.39500000 171.97800000
O 144.76800000 138.48900000 169.88400000
Ni 144.76800000 136.39500000 174.07200000
Ni 144.76800000 138.48900000 176.16300000
Ni 146.85900000 136.39500000 176.16300000
Ni 146.85900000 138.48900000 174.07200000
O 146.85900000 136.39500000 174.07200000
O 146.85900000 138.48900000 176.16300000
O 144.76800000 136.39500000 176.16300000
O 144.76800000 138.48900000 174.07200000
Ni 144.76800000 142.67400000 121.74300000
Ni 146.85900000 140.58000000 121.74300000
O 146.85900000 142.67400000 121.74300000
Ni 144.76800000 140.58000000 123.83700000
Ni 144.76800000 142.67400000 125.92800000
Ni 146.85900000 140.58000000 125.92800000
Ni 146.85900000 142.67400000 123.83700000
O 146.85900000 140.58000000 123.83700000
O 146.85900000 142.67400000 125.92800000
O 144.76800000 140.58000000 125.92800000
O 144.76800000 142.67400000 123.83700000
Ni 144.76800000 140.58000000 128.02200000
Ni 144.76800000 142.67400000 130.11600000
Ni 146.85900000 140.58000000 130.11600000
Ni 146.85900000 142.67400000 128.02200000
O 146.85900000 140.58000000 128.02200000
O 146.85900000 142.67400000 130.11600000
O 144.76800000 140.58000000 130.11600000
O 144.76800000 142.67400000 128.02200000
Ni 144.76800000 140.58000000 132.20700000
Ni 144.76800000 142.67400000 134.30100000
Ni 146.85900000 140.58000000 134.30100000
Ni 146.85900000 142.67400000 132.20700000
O 146.85900000 140.58000000 132.20700000
O 146.85900000 142.67400000 134.30100000
O 144.76800000 140.58000000 134.30100000
O 144.76800000 142.67400000 132.20700000
Ni 144.76800000 140.58000000 136.39500000
Ni 144.76800000 142.67400000 138.48900000
Ni 146.85900000 140.58000000 138.48900000
Ni 146.85900000 142.67400000 136.39500000
O 146.85900000 140.58000000 136.39500000
O 146.85900000 142.67400000 138.48900000
O 144.76800000 140.58000000 138.48900000
O 144.76800000 142.67400000 136.39500000
Ni 144.76800000 140.58000000 140.58000000
Ni 144.76800000 142.67400000 142.67400000
Ni 146.85900000 140.58000000 142.67400000
Ni 146.85900000 142.67400000 140.58000000
O 146.85900000 140.58000000 140.58000000
O 146.85900000 142.67400000 142.67400000
O 144.76800000 140.58000000 142.67400000
O 144.76800000 142.67400000 140.58000000
Ni 144.76800000 140.58000000 144.76800000
Ni 144.76800000 142.67400000 146.85900000
Ni 146.85900000 140.58000000 146.85900000
Ni 146.85900000 142.67400000 144.76800000
O 146.85900000 140.58000000 144.76800000
O 146.85900000 142.67400000 146.85900000
O 144.76800000 140.58000000 146.85900000
O 144.76800000 142.67400000 144.76800000
Ni 144.76800000 140.58000000 148.95300000
Ni 144.76800000 142.67400000 151.04700000
Ni 146.85900000 140.58000000 151.04700000
Ni 146.85900000 142.67400000 148.95300000
O 146.85900000 140.58000000 148.95300000
O 146.85900000 142.67400000 151.04700000
O 144.76800000 140.58000000 151.04700000
O 144.76800000 142.67400000 148.95300000
Ni 144.76800000 140.58000000 153.14100000
Ni 144.76800000 142.67400000 155.23200000
Ni 146.85900000 140.58000000 155.23200000
Ni 146.85900000 142.67400000 153.14100000
O 146.85900000 140.58000000 153.14100000
O 146.85900000 142.67400000 155.23200000
O 144.76800000 140.58000000 155.23200000
O 144.76800000 142.67400000 153.14100000
Ni 144.76800000 140.58000000 157.32600000
Ni 144.76800000 142.67400000 159.42000000
Ni 146.85900000 140.58000000 159.42000000
Ni 146.85900000 142.67400000 157.32600000
O 146.85900000 140.58000000 157.32600000
O 146.85900000 142.67400000 159.42000000
O 144.76800000 140.58000000 159.42000000
O 144.76800000 142.67400000 157.32600000
Ni 144.76800000 140.58000000 161.51100000
Ni 144.76800000 142.67400000 163.60500000
Ni 146.85900000 140.58000000 163.60500000
Ni 146.85900000 142.67400000 161.51100000
O 146.85900000 140.58000000 161.51100000
O 146.85900000 142.67400000 163.60500000
O 144.76800000 140.58000000 163.60500000
O 144.76800000 142.67400000 161.51100000
Ni 144.76800000 140.58000000 165.69900000
Ni 144.76800000 142.67400000 167.79300000
Ni 146.85900000 140.58000000 167.79300000
Ni 146.85900000 142.67400000 165.69900000
O 146.85900000 140.58000000 165.69900000
O 146.85900000 142.67400000 167.79300000
O 144.76800000 140.58000000 167.79300000
O 144.76800000 142.67400000 165.69900000
Ni 144.76800000 140.58000000 169.88400000
Ni 144.76800000 142.67400000 171.97800000
Ni 146.85900000 140.58000000 171.97800000
Ni 146.85900000 142.67400000 169.88400000
O 146.85900000 140.58000000 169.88400000
O 146.85900000 142.67400000 171.97800000
O 144.76800000 140.58000000 171.97800000
O 144.76800000 142.67400000 169.88400000
Ni 144.76800000 140.58000000 174.07200000
Ni 144.76800000 142.67400000 176.16300000
Ni 146.85900000 140.58000000 176.16300000
Ni 146.85900000 142.67400000 174.07200000
O 146.85900000 140.58000000 174.07200000
O 146.85900000 142.67400000 176.16300000
O 144.76800000 140.58000000 176.16300000
O 144.76800000 142.67400000 174.07200000
Ni 146.85900000 142.67400000 178.25700000
O 146.85900000 140.58000000 178.25700000
O 144.76800000 142.67400000 178.25700000
Ni 144.76800000 146.85900000 121.74300000
Ni 146.85900000 144.76800000 121.74300000
O 146.85900000 146.85900000 121.74300000
O 144.76800000 144.76800000 121.74300000
Ni 144.76800000 144.76800000 123.83700000
Ni 144.76800000 146.85900000 125.92800000
Ni 146.85900000 144.76800000 125.92800000
Ni 146.85900000 146.85900000 123.83700000
O 146.85900000 144.76800000 123.83700000
O 146.85900000 146.85900000 125.92800000
O 144.76800000 144.76800000 125.92800000
O 144.76800000 146.85900000 123.83700000
Ni 144.76800000 144.76800000 128.02200000
Ni 144.76800000 146.85900000 130.11600000
Ni 146.85900000 144.76800000 130.11600000
Ni 146.85900000 146.85900000 128.02200000
O 146.85900000 144.76800000 128.02200000
O 146.85900000 146.85900000 130.11600000
O 144.76800000 144.76800000 130.11600000
O 144.76800000 146.85900000 128.02200000
Ni 144.76800000 144.76800000 132.20700000
Ni 144.76800000 146.85900000 134.30100000
Ni 146.85900000 144.76800000 134.30100000
Ni 146.85900000 146.85900000 132.20700000
O 146.85900000 144.76800000 132.20700000
O 146.85900000 146.85900000 134.30100000
O 144.76800000 144.76800000 134.30100000
O 144.76800000 146.85900000 132.20700000
Ni 144.76800000 144.76800000 136.39500000
Ni 144.76800000 146.85900000 138.48900000
Ni 146.85900000 144.76800000 138.48900000
Ni 146.85900000 146.85900000 136.39500000
O 146.85900000 144.76800000 136.39500000
O 146.85900000 146.85900000 138.48900000
O 144.76800000 144.76800000 138.48900000
O 144.76800000 146.85900000 136.39500000
Ni 144.76800000 144.76800000 140.58000000
Ni 144.76800000 146.85900000 142.67400000
Ni 146.85900000 144.76800000 142.67400000
Ni 146.85900000 146.85900000 140.58000000
O 146.85900000 144.76800000 140.58000000
O 146.85900000 146.85900000 142.67400000
O 144.76800000 144.76800000 142.67400000
O 144.76800000 146.85900000 140.58000000
Ni 144.76800000 144.76800000 144.76800000
Ni 144.76800000 146.85900000 146.85900000
Ni 146.85900000 144.76800000 146.85900000
Ni 146.85900000 146.85900000 144.76800000
O 146.85900000 144.76800000 144.76800000
O 146.85900000 146.85900000 146.85900000
O 144.76800000 144.76800000 146.85900000
O 144.76800000 146.85900000 144.76800000
Ni 144.76800000 144.76800000 148.95300000
Ni 144.76800000 146.85900000 151.04700000
Ni 146.85900000 144.76800000 151.04700000
Ni 146.85900000 146.85900000 148.95300000
O 146.85900000 144.76800000 148.95300000
O 146.85900000 146.85900000 151.04700000
O 144.76800000 144.76800000 151.04700000
O 144.76800000 146.85900000 148.95300000
Ni 144.76800000 144.76800000 153.14100000
Ni 144.76800000 146.85900000 155.23200000
Ni 146.85900000 144.76800000 155.23200000
Ni 146.85900000 146.85900000 153.14100000
O 146.85900000 144.76800000 153.14100000
O 146.85900000 146.85900000 155.23200000
O 144.76800000 144.76800000 155.23200000
O 144.76800000 146.85900000 153.14100000
Ni 144.76800000 144.76800000 157.32600000
Ni 144.76800000 146.85900000 159.42000000
Ni 146.85900000 144.76800000 159.42000000
Ni 146.85900000 146.85900000 157.32600000
O 146.85900000 144.76800000 157.32600000
O 146.85900000 146.85900000 159.42000000
O 144.76800000 144.76800000 159.42000000
O 144.76800000 146.85900000 157.32600000
Ni 144.76800000 144.76800000 161.51100000
Ni 144.76800000 146.85900000 163.60500000
Ni 146.85900000 144.76800000 163.60500000
Ni 146.85900000 146.85900000 161.51100000
O 146.85900000 144.76800000 161.51100000
O 146.85900000 146.85900000 163.60500000
O 144.76800000 144.76800000 163.60500000
O 144.76800000 146.85900000 161.51100000
Ni 144.76800000 144.76800000 165.69900000
Ni 144.76800000 146.85900000 167.79300000
Ni 146.85900000 144.76800000 167.79300000
Ni 146.85900000 146.85900000 165.69900000
O 146.85900000 144.76800000 165.69900000
O 146.85900000 146.85900000 167.79300000
O 144.76800000 144.76800000 167.79300000
O 144.76800000 146.85900000 165.69900000
Ni 144.76800000 144.76800000 169.88400000
Ni 144.76800000 146.85900000 171.97800000
Ni 146.85900000 144.76800000 171.97800000
Ni 146.85900000 146.85900000 169.88400000
O 146.85900000 144.76800000 169.88400000
O 146.85900000 146.85900000 171.97800000
O 144.76800000 144.76800000 171.97800000
O 144.76800000 146.85900000 169.88400000
Ni 144.76800000 144.76800000 174.07200000
Ni 144.76800000 146.85900000 176.16300000
Ni 146.85900000 144.76800000 176.16300000
Ni 146.85900000 146.85900000 174.07200000
O 146.85900000 144.76800000 174.07200000
O 146.85900000 146.85900000 176.16300000
O 144.76800000 144.76800000 176.16300000
O 144.76800000 146.85900000 174.07200000
Ni 144.76800000 144.76800000 178.25700000
Ni 146.85900000 146.85900000 178.25700000
O 146.85900000 144.76800000 178.25700000
O 144.76800000 146.85900000 178.25700000
Ni 144.76800000 151.04700000 121.74300000
Ni 146.85900000 148.95300000 121.74300000
O 146.85900000 151.04700000 121.74300000
O 144.76800000 148.95300000 121.74300000
Ni 144.76800000 148.95300000 123.83700000
Ni 144.76800000 151.04700000 125.92800000
Ni 146.85900000 148.95300000 125.92800000
Ni 146.85900000 151.04700000 123.83700000
O 146.85900000 148.95300000 123.83700000
O 146.85900000 151.04700000 125.92800000
O 144.76800000 148.95300000 125.92800000
O 144.76800000 151.04700000 123.83700000
Ni 144.76800000 148.95300000 128.02200000
Ni 144.76800000 151.04700000 130.11600000
Ni 146.85900000 148.95300000 130.11600000
Ni 146.85900000 151.04700000 128.02200000
O 146.85900000 148.95300000 128.02200000
O 146.85900000 151.04700000 130.11600000
O 144.76800000 148.95300000 130.11600000
O 144.76800000 151.04700000 128.02200000
Ni 144.76800000 148.95300000 132.20700000
Ni 144.76800000 151.04700000 134.30100000
Ni 146.85900000 148.95300000 134.30100000
Ni 146.85900000 151.04700000 132.20700000
O 146.85900000 148.95300000 132.20700000
O 146.85900000 151.04700000 134.30100000
O 144.76800000 148.95300000 134.30100000
O 144.76800000 151.04700000 132.20700000
Ni 144.76800000 148.95300000 136.39500000
Ni 144.76800000 151.04700000 138.48900000
Ni 146.85900000 148.95300000 138.48900000
Ni 146.85900000 151.04700000 136.39500000
O 146.85900000 148.95300000 136.39500000
O 146.85900000 151.04700000 138.48900000
O 144.76800000 148.95300000 138.48900000
O 144.76800000 151.04700000 136.39500000
Ni 144.76800000 148.95300000 140.58000000
Ni 144.76800000 151.04700000 142.67400000
Ni 146.85900000 148.95300000 142.67400000
Ni 146.85900000 151.04700000 140.58000000
O 146.85900000 148.95300000 140.58000000
O 146.85900000 151.04700000 142.67400000
O 144.76800000 148.95300000 142.67400000
O 144.76800000 151.04700000 140.58000000
Ni 144.76800000 148.95300000 144.76800000
Ni 144.76800000 151.04700000 146.85900000
Ni 146.85900000 148.95300000 146.85900000
Ni 146.85900000 151.04700000 144.76800000
O 146.85900000 148.95300000 144.76800000
O 146.85900000 151.04700000 146.85900000
O 144.76800000 148.95300000 146.85900000
O 144.76800000 151.04700000 144.76800000
Ni 144.76800000 148.95300000 148.95300000
Ni 144.76800000 151.04700000 151.04700000
Ni 146.85900000 148.95300000 151.04700000
Ni 146.85900000 151.04700000 148.95300000
O 146.85900000 148.95300000 148.95300000
O 146.85900000 151.04700000 151.04700000
O 144.76800000 148.95300000 151.04700000
O 144.76800000 151.04700000 148.95300000
Ni 144.76800000 148.95300000 153.14100000
Ni 144.76800000 151.04700000 155.23200000
Ni 146.85900000 148.95300000 155.23200000
Ni 146.85900000 151.04700000 153.14100000
O 146.85900000 148.95300000 153.14100000
O 146.85900000 151.04700000 155.23200000
O 144.76800000 148.95300000 155.23200000
O 144.76800000 151.04700000 153.14100000
Ni 144.76800000 148.95300000 157.32600000
Ni 144.76800000 151.04700000 159.42000000
Ni 146.85900000 148.95300000 159.42000000
Ni 146.85900000 151.04700000 157.32600000
O 146.85900000 148.95300000 157.32600000
O 146.85900000 151.04700000 159.42000000
O 144.76800000 148.95300000 159.42000000
O 144.76800000 151.04700000 157.32600000
Ni 144.76800000 148.95300000 161.51100000
Ni 144.76800000 151.04700000 163.60500000
Ni 146.85900000 148.95300000 163.60500000
Ni 146.85900000 151.04700000 161.51100000
O 146.85900000 148.95300000 161.51100000
O 146.85900000 151.04700000 163.60500000
O 144.76800000 148.95300000 163.60500000
O 144.76800000 151.04700000 161.51100000
Ni 144.76800000 148.95300000 165.69900000
Ni 144.76800000 151.04700000 167.79300000
Ni 146.85900000 148.95300000 167.79300000
Ni 146.85900000 151.04700000 165.69900000
O 146.85900000 148.95300000 165.69900000
O 146.85900000 151.04700000 167.79300000
O 144.76800000 148.95300000 167.79300000
O 144.76800000 151.04700000 165.69900000
Ni 144.76800000 148.95300000 169.88400000
Ni 144.76800000 151.04700000 171.97800000
Ni 146.85900000 148.95300000 171.97800000
Ni 146.85900000 151.04700000 169.88400000
O 146.85900000 148.95300000 169.88400000
O 146.85900000 151.04700000 171.97800000
O 144.76800000 148.95300000 171.97800000
O 144.76800000 151.04700000 169.88400000
Ni 144.76800000 148.95300000 174.07200000
Ni 144.76800000 151.04700000 176.16300000
Ni 146.85900000 148.95300000 176.16300000
Ni 146.85900000 151.04700000 174.07200000
O 146.85900000 148.95300000 174.07200000
O 146.85900000 151.04700000 176.16300000
O 144.76800000 148.95300000 176.16300000
O 144.76800000 151.04700000 174.07200000
Ni 144.76800000 148.95300000 178.25700000
Ni 146.85900000 151.04700000 178.25700000
O 146.85900000 148.95300000 178.25700000
O 144.76800000 151.04700000 178.25700000
Ni 144.76800000 155.23200000 121.74300000
Ni 146.85900000 153.14100000 121.74300000
O 146.85900000 155.23200000 121.74300000
O 144.76800000 153.14100000 121.74300000
Ni 144.76800000 153.14100000 123.83700000
Ni 144.76800000 155.23200000 125.92800000
Ni 146.85900000 153.14100000 125.92800000
Ni 146.85900000 155.23200000 123.83700000
O 146.85900000 153.14100000 123.83700000
O 146.85900000 155.23200000 125.92800000
O 144.76800000 153.14100000 125.92800000
O 144.76800000 155.23200000 123.83700000
Ni 144.76800000 153.14100000 128.02200000
Ni 144.76800000 155.23200000 130.11600000
Ni 146.85900000 153.14100000 130.11600000
Ni 146.85900000 155.23200000 128.02200000
O 146.85900000 153.14100000 128.02200000
O 146.85900000 155.23200000 130.11600000
O 144.76800000 153.14100000 130.11600000
O 144.76800000 155.23200000 128.02200000
Ni 144.76800000 153.14100000 132.20700000
Ni 144.76800000 155.23200000 134.30100000
Ni 146.85900000 153.14100000 134.30100000
Ni 146.85900000 155.23200000 132.20700000
O 146.85900000 153.14100000 132.20700000
O 146.85900000 155.23200000 134.30100000
O 144.76800000 153.14100000 134.30100000
O 144.76800000 155.23200000 132.20700000
Ni 144.76800000 153.14100000 136.39500000
Ni 144.76800000 155.23200000 138.48900000
Ni 146.85900000 153.14100000 138.48900000
Ni 146.85900000 155.23200000 136.39500000
O 146.85900000 153.14100000 136.39500000
O 146.85900000 155.23200000 138.48900000
O 144.76800000 153.14100000 138.48900000
O 144.76800000 155.23200000 136.39500000
Ni 144.76800000 153.14100000 140.58000000
Ni 144.76800000 155.23200000 142.67400000
Ni 146.85900000 153.14100000 142.67400000
Ni 146.85900000 155.23200000 140.58000000
O 146.85900000 153.14100000 140.58000000
O 146.85900000 155.23200000 142.67400000
O 144.76800000 153.14100000 142.67400000
O 144.76800000 155.23200000 140.58000000
Ni 144.76800000 153.14100000 144.76800000
Ni 144.76800000 155.23200000 146.85900000
Ni 146.85900000 153.14100000 146.85900000
Ni 146.85900000 155.23200000 144.76800000
O 146.85900000 153.14100000 144.76800000
O 146.85900000 155.23200000 146.85900000
O 144.76800000 153.14100000 146.85900000
O 144.76800000 155.23200000 144.76800000
Ni 144.76800000 153.14100000 148.95300000
Ni 144.76800000 155.23200000 151.04700000
Ni 146.85900000 153.14100000 151.04700000
Ni 146.85900000 155.23200000 148.95300000
O 146.85900000 153.14100000 148.95300000
O 146.85900000 155.23200000 151.04700000
O 144.76800000 153.14100000 151.04700000
O 144.76800000 155.23200000 148.95300000
Ni 144.76800000 153.14100000 153.14100000
Ni 144.76800000 155.23200000 155.23200000
Ni 146.85900000 153.14100000 155.23200000
Ni 146.85900000 155.23200000 153.14100000
O 146.85900000 153.14100000 153.14100000
O 146.85900000 155.23200000 155.23200000
O 144.76800000 153.14100000 155.23200000
O 144.76800000 155.23200000 153.14100000
Ni 144.76800000 153.14100000 157.32600000
Ni 144.76800000 155.23200000 159.42000000
Ni 146.85900000 153.14100000 159.42000000
Ni 146.85900000 155.23200000 157.32600000
O 146.85900000 153.14100000 157.32600000
O 146.85900000 155.23200000 159.42000000
O 144.76800000 153.14100000 159.42000000
O 144.76800000 155.23200000 157.32600000
Ni 144.76800000 153.14100000 161.51100000
Ni 144.76800000 155.23200000 163.60500000
Ni 146.85900000 153.14100000 163.60500000
Ni 146.85900000 155.23200000 161.51100000
O 146.85900000 153.14100000 161.51100000
O 146.85900000 155.23200000 163.60500000
O 144.76800000 153.14100000 163.60500000
O 144.76800000 155.23200000 161.51100000
Ni 144.76800000 153.14100000 165.69900000
Ni 144.76800000 155.23200000 167.79300000
Ni 146.85900000 153.14100000 167.79300000
Ni 146.85900000 155.23200000 165.69900000
O 146.85900000 153.14100000 165.69900000
O 146.85900000 155.23200000 167.79300000
O 144.76800000 153.14100000 167.79300000
O 144.76800000 155.23200000 165.69900000
Ni 144.76800000 153.14100000 169.88400000
Ni 144.76800000 155.23200000 171.97800000
Ni 146.85900000 153.14100000 171.97800000
Ni 146.85900000 155.23200000 169.88400000
O 146.85900000 153.14100000 169.88400000
O 146.85900000 155.23200000 171.97800000
O 144.76800000 153.14100000 171.97800000
O 144.76800000 155.23200000 169.88400000
Ni 144.76800000 153.14100000 174.07200000
Ni 144.76800000 155.23200000 176.16300000
Ni 146.85900000 153.14100000 176.16300000
Ni 146.85900000 155.23200000 174.07200000
O 146.85900000 153.14100000 174.07200000
O 146.85900000 155.23200000 176.16300000
O 144.76800000 153.14100000 176.16300000
O 144.76800000 155.23200000 174.07200000
Ni 144.76800000 153.14100000 178.25700000
Ni 146.85900000 155.23200000 178.25700000
O 146.85900000 153.14100000 178.25700000
O 144.76800000 155.23200000 178.25700000
Ni 146.85900000 157.32600000 121.74300000
O 146.85900000 159.42000000 121.74300000
O 144.76800000 157.32600000 121.74300000
Ni 144.76800000 157.32600000 123.83700000
Ni 144.76800000 159.42000000 125.92800000
Ni 146.85900000 157.32600000 125.92800000
Ni 146.85900000 159.42000000 123.83700000
O 146.85900000 157.32600000 123.83700000
O 146.85900000 159.42000000 125.92800000
O 144.76800000 157.32600000 125.92800000
O 144.76800000 159.42000000 123.83700000
Ni 144.76800000 157.32600000 128.02200000
Ni 144.76800000 159.42000000 130.11600000
Ni 146.85900000 157.32600000 130.11600000
Ni 146.85900000 159.42000000 128.02200000
O 146.85900000 157.32600000 128.02200000
O 146.85900000 159.42000000 130.11600000
O 144.76800000 157.32600000 130.11600000
O 144.76800000 159.42000000 128.02200000
Ni 144.76800000 157.32600000 132.20700000
Ni 144.76800000 159.42000000 134.30100000
Ni 146.85900000 157.32600000 134.30100000
Ni 146.85900000 159.42000000 132.20700000
O 146.85900000 157.32600000 132.20700000
O 146.85900000 159.42000000 134.30100000
O 144.76800000 157.32600000 134.30100000
O 144.76800000 159.42000000 132.20700000
Ni 144.76800000 157.32600000 136.39500000
Ni 144.76800000 159.42000000 138.48900000
Ni 146.85900000 157.32600000 138.48900000
Ni 146.85900000 159.42000000 136.39500000
O 146.85900000 157.32600000 136.39500000
O 146.85900000 159.42000000 138.48900000
O 144.76800000 157.32600000 138.48900000
O 144.76800000 159.42000000 136.39500000
Ni 144.76800000 157.32600000 140.58000000
Ni 144.76800000 159.42000000 142.67400000
Ni 146.85900000 157.32600000 142.67400000
Ni 146.85900000 159.42000000 140.58000000
O 146.85900000 157.32600000 140.58000000
O 146.85900000 159.42000000 142.67400000
O 144.76800000 157.32600000 142.67400000
O 144.76800000 159.42000000 140.58000000
Ni 144.76800000 157.32600000 144.76800000
Ni 144.76800000 159.42000000 146.85900000
Ni 146.85900000 157.32600000 146.85900000
Ni 146.85900000 159.42000000 144.76800000
O 146.85900000 157.32600000 144.76800000
O 146.85900000 159.42000000 146.85900000
O 144.76800000 157.32600000 146.85900000
O 144.76800000 159.42000000 144.76800000
Ni 144.76800000 157.32600000 148.95300000
Ni 144.76800000 159.42000000 151.04700000
Ni 146.85900000 157.32600000 151.04700000
Ni 146.85900000 159.42000000 148.95300000
O 146.85900000 157.32600000 148.95300000
O 146.85900000 159.42000000 151.04700000
O 144.76800000 157.32600000 151.04700000
O 144.76800000 159.42000000 148.95300000
Ni 144.76800000 157.32600000 153.14100000
Ni 144.76800000 159.42000000 155.23200000
Ni 146.85900000 157.32600000 155.23200000
Ni 146.85900000 159.42000000 153.14100000
O 146.85900000 157.32600000 153.14100000
O 146.85900000 159.42000000 155.23200000
O 144.76800000 157.32600000 155.23200000
O 144.76800000 159.42000000 153.14100000
Ni 144.76800000 157.32600000 157.32600000
Ni 144.76800000 159.42000000 159.42000000
Ni 146.85900000 157.32600000 159.42000000
Ni 146.85900000 159.42000000 157.32600000
O 146.85900000 157.32600000 157.32600000
O 146.85900000 159.42000000 159.42000000
O 144.76800000 157.32600000 159.42000000
O 144.76800000 159.42000000 157.32600000
Ni 144.76800000 157.32600000 161.51100000
Ni 144.76800000 159.42000000 163.60500000
Ni 146.85900000 157.32600000 163.60500000
Ni 146.85900000 159.42000000 161.51100000
O 146.85900000 157.32600000 161.51100000
O 146.85900000 159.42000000 163.60500000
O 144.76800000 157.32600000 163.60500000
O 144.76800000 159.42000000 161.51100000
Ni 144.76800000 157.32600000 165.69900000
Ni 144.76800000 159.42000000 167.79300000
Ni 146.85900000 157.32600000 167.79300000
Ni 146.85900000 159.42000000 165.69900000
O 146.85900000 157.32600000 165.69900000
O 146.85900000 159.42000000 167.79300000
O 144.76800000 157.32600000 167.79300000
O 144.76800000 159.42000000 165.69900000
Ni 144.76800000 157.32600000 169.88400000
Ni 144.76800000 159.42000000 171.97800000
Ni 146.85900000 157.32600000 171.97800000
Ni 146.85900000 159.42000000 169.88400000
O 146.85900000 157.32600000 169.88400000
O 146.85900000 159.42000000 171.97800000
O 144.76800000 157.32600000 171.97800000
O 144.76800000 159.42000000 169.88400000
Ni 144.76800000 157.32600000 174.07200000
Ni 144.76800000 159.42000000 176.16300000
Ni 146.85900000 157.32600000 176.16300000
Ni 146.85900000 159.42000000 174.07200000
O 146.85900000 157.32600000 174.07200000
O 146.85900000 159.42000000 176.16300000
O 144.76800000 157.32600000 176.16300000
O 144.76800000 159.42000000 174.07200000
Ni 144.76800000 157.32600000 178.25700000
Ni 146.85900000 159.42000000 178.25700000
O 146.85900000 157.32600000 178.25700000
Ni 144.76800000 161.51100000 123.83700000
Ni 144.76800000 163.60500000 125.92800000
Ni 146.85900000 161.51100000 125.92800000
Ni 146.85900000 163.60500000 123.83700000
O 146.85900000 161.51100000 123.83700000
O 146.85900000 163.60500000 125.92800000
O 144.76800000 161.51100000 125.92800000
O 144.76800000 163.60500000 123.83700000
Ni 144.76800000 161.51100000 128.02200000
Ni 144.76800000 163.60500000 130.11600000
Ni 146.85900000 161.51100000 130.11600000
Ni 146.85900000 163.60500000 128.02200000
O 146.85900000 161.51100000 128.02200000
O 146.85900000 163.60500000 130.11600000
O 144.76800000 161.51100000 130.11600000
O 144.76800000 163.60500000 128.02200000
Ni 144.76800000 161.51100000 132.20700000
Ni 144.76800000 163.60500000 134.30100000
Ni 146.85900000 161.51100000 134.30100000
Ni 146.85900000 163.60500000 132.20700000
O 146.85900000 161.51100000 132.20700000
O 146.85900000 163.60500000 134.30100000
O 144.76800000 161.51100000 134.30100000
O 144.76800000 163.60500000 132.20700000
Ni 144.76800000 161.51100000 136.39500000
Ni 144.76800000 163.60500000 138.48900000
Ni 146.85900000 161.51100000 138.48900000
Ni 146.85900000 163.60500000 136.39500000
O 146.85900000 161.51100000 136.39500000
O 146.85900000 163.60500000 138.48900000
O 144.76800000 161.51100000 138.48900000
O 144.76800000 163.60500000 136.39500000
Ni 144.76800000 161.51100000 140.58000000
Ni 144.76800000 163.60500000 142.67400000
Ni 146.85900000 161.51100000 142.67400000
Ni 146.85900000 163.60500000 140.58000000
O 146.85900000 161.51100000 140.58000000
O 146.85900000 163.60500000 142.67400000
O 144.76800000 161.51100000 142.67400000
O 144.76800000 163.60500000 140.58000000
Ni 144.76800000 161.51100000 144.76800000
Ni 144.76800000 163.60500000 146.85900000
Ni 146.85900000 161.51100000 146.85900000
Ni 146.85900000 163.60500000 144.76800000
O 146.85900000 161.51100000 144.76800000
O 146.85900000 163.60500000 146.85900000
O 144.76800000 161.51100000 146.85900000
O 144.76800000 163.60500000 144.76800000
Ni 144.76800000 161.51100000 148.95300000
Ni 144.76800000 163.60500000 151.04700000
Ni 146.85900000 161.51100000 151.04700000
Ni 146.85900000 163.60500000 148.95300000
O 146.85900000 161.51100000 148.95300000
O 146.85900000 163.60500000 151.04700000
O 144.76800000 161.51100000 151.04700000
O 144.76800000 163.60500000 148.95300000
Ni 144.76800000 161.51100000 153.14100000
Ni 144.76800000 163.60500000 155.23200000
Ni 146.85900000 161.51100000 155.23200000
Ni 146.85900000 163.60500000 153.14100000
O 146.85900000 161.51100000 153.14100000
O 146.85900000 163.60500000 155.23200000
O 144.76800000 161.51100000 155.23200000
O 144.76800000 163.60500000 153.14100000
Ni 144.76800000 161.51100000 157.32600000
Ni 144.76800000 163.60500000 159.42000000
Ni 146.85900000 161.51100000 159.42000000
Ni 146.85900000 163.60500000 157.32600000
O 146.85900000 161.51100000 157.32600000
O 146.85900000 163.60500000 159.42000000
O 144.76800000 161.51100000 159.42000000
O 144.76800000 163.60500000 157.32600000
Ni 144.76800000 161.51100000 161.51100000
Ni 144.76800000 163.60500000 163.60500000
Ni 146.85900000 161.51100000 163.60500000
Ni 146.85900000 163.60500000 161.51100000
O 146.85900000 161.51100000 161.51100000
O 146.85900000 163.60500000 163.60500000
O 144.76800000 161.51100000 163.60500000
O 144.76800000 163.60500000 161.51100000
Ni 144.76800000 161.51100000 165.69900000
Ni 144.76800000 163.60500000 167.79300000
Ni 146.85900000 161.51100000 167.79300000
Ni 146.85900000 163.60500000 165.69900000
O 146.85900000 161.51100000 165.69900000
O 146.85900000 163.60500000 167.79300000
O 144.76800000 161.51100000 167.79300000
O 144.76800000 163.60500000 165.69900000
Ni 144.76800000 161.51100000 169.88400000
Ni 144.76800000 163.60500000 171.97800000
Ni 146.85900000 161.51100000 171.97800000
Ni 146.85900000 163.60500000 169.88400000
O 146.85900000 161.51100000 169.88400000
O 146.85900000 163.60500000 171.97800000
O 144.76800000 161.51100000 171.97800000
O 144.76800000 163.60500000 169.88400000
Ni 144.76800000 161.51100000 174.07200000
Ni 144.76800000 163.60500000 176.16300000
Ni 146.85900000 161.51100000 176.16300000
Ni 146.85900000 163.60500000 174.07200000
O 146.85900000 161.51100000 174.07200000
O 146.85900000 163.60500000 176.16300000
O 144.76800000 161.51100000 176.16300000
O 144.76800000 163.60500000 174.07200000
Ni 146.85900000 165.69900000 125.92800000
O 144.76800000 165.69900000 125.92800000
Ni 144.76800000 165.69900000 128.02200000
Ni 144.76800000 167.79300000 130.11600000
Ni 146.85900000 165.69900000 130.11600000
Ni 146.85900000 167.79300000 128.02200000
O 146.85900000 165.69900000 128.02200000
O 146.85900000 167.79300000 130.11600000
O 144.76800000 165.69900000 130.11600000
O 144.76800000 167.79300000 128.02200000
Ni 144.76800000 165.69900000 132.20700000
Ni 144.76800000 167.79300000 134.30100000
Ni 146.85900000 165.69900000 134.30100000
Ni 146.85900000 167.79300000 132.20700000
O 146.85900000 165.69900000 132.20700000
O 146.85900000 167.79300000 134.30100000
O 144.76800000 165.69900000 134.30100000
O 144.76800000 167.79300000 132.20700000
Ni 144.76800000 165.69900000 136.39500000
Ni 144.76800000 167.79300000 138.48900000
Ni 146.85900000 165.69900000 138.48900000
Ni 146.85900000 167.79300000 136.39500000
O 146.85900000 165.69900000 136.39500000
O 146.85900000 167.79300000 138.48900000
O 144.76800000 165.69900000 138.48900000
O 144.76800000 167.79300000 136.39500000
Ni 144.76800000 165.69900000 140.58000000
Ni 144.76800000 167.79300000 142.67400000
Ni 146.85900000 165.69900000 142.67400000
Ni 146.85900000 167.79300000 140.58000000
O 146.85900000 165.69900000 140.58000000
O 146.85900000 167.79300000 142.67400000
O 144.76800000 165.69900000 142.67400000
O 144.76800000 167.79300000 140.58000000
Ni 144.76800000 165.69900000 144.76800000
Ni 144.76800000 167.79300000 146.85900000
Ni 146.85900000 165.69900000 146.85900000
Ni 146.85900000 167.79300000 144.76800000
O 146.85900000 165.69900000 144.76800000
O 146.85900000 167.79300000 146.85900000
O 144.76800000 165.69900000 146.85900000
O 144.76800000 167.79300000 144.76800000
Ni 144.76800000 165.69900000 148.95300000
Ni 144.76800000 167.79300000 151.04700000
Ni 146.85900000 165.69900000 151.04700000
Ni 146.85900000 167.79300000 148.95300000
O 146.85900000 165.69900000 148.95300000
O 146.85900000 167.79300000 151.04700000
O 144.76800000 165.69900000 151.04700000
O 144.76800000 167.79300000 148.95300000
Ni 144.76800000 165.69900000 153.14100000
Ni 144.76800000 167.79300000 155.23200000
Ni 146.85900000 165.69900000 155.23200000
Ni 146.85900000 167.79300000 153.14100000
O 146.85900000 165.69900000 153.14100000
O 146.85900000 167.79300000 155.23200000
O 144.76800000 165.69900000 155.23200000
O 144.76800000 167.79300000 153.14100000
Ni 144.76800000 165.69900000 157.32600000
Ni 144.76800000 167.79300000 159.42000000
Ni 146.85900000 165.69900000 159.42000000
Ni 146.85900000 167.79300000 157.32600000
O 146.85900000 165.69900000 157.32600000
O 146.85900000 167.79300000 159.42000000
O 144.76800000 165.69900000 159.42000000
O 144.76800000 167.79300000 157.32600000
Ni 144.76800000 165.69900000 161.51100000
Ni 144.76800000 167.79300000 163.60500000
Ni 146.85900000 165.69900000 163.60500000
Ni 146.85900000 167.79300000 161.51100000
O 146.85900000 165.69900000 161.51100000
O 146.85900000 167.79300000 163.60500000
O 144.76800000 165.69900000 163.60500000
O 144.76800000 167.79300000 161.51100000
Ni 144.76800000 165.69900000 165.69900000
Ni 144.76800000 167.79300000 167.79300000
Ni 146.85900000 165.69900000 167.79300000
Ni 146.85900000 167.79300000 165.69900000
O 146.85900000 165.69900000 165.69900000
O 146.85900000 167.79300000 167.79300000
O 144.76800000 165.69900000 167.79300000
O 144.76800000 167.79300000 165.69900000
Ni 144.76800000 165.69900000 169.88400000
Ni 144.76800000 167.79300000 171.97800000
Ni 146.85900000 165.69900000 171.97800000
Ni 146.85900000 167.79300000 169.88400000
O 146.85900000 165.69900000 169.88400000
O 146.85900000 167.79300000 171.97800000
O 144.76800000 165.69900000 171.97800000
O 144.76800000 167.79300000 169.88400000
Ni 144.76800000 165.69900000 174.07200000
O 146.85900000 165.69900000 174.07200000
Ni 146.85900000 169.88400000 130.11600000
O 146.85900000 169.88400000 128.02200000
O 146.85900000 171.97800000 130.11600000
O 144.76800000 169.88400000 130.11600000
Ni 144.76800000 169.88400000 132.20700000
Ni 144.76800000 171.97800000 134.30100000
Ni 146.85900000 169.88400000 134.30100000
Ni 146.85900000 171.97800000 132.20700000
O 146.85900000 169.88400000 132.20700000
O 146.85900000 171.97800000 134.30100000
O 144.76800000 169.88400000 134.30100000
O 144.76800000 171.97800000 132.20700000
Ni 144.76800000 169.88400000 136.39500000
Ni 144.76800000 171.97800000 138.48900000
Ni 146.85900000 169.88400000 138.48900000
Ni 146.85900000 171.97800000 136.39500000
O 146.85900000 169.88400000 136.39500000
O 146.85900000 171.97800000 138.48900000
O 144.76800000 169.88400000 138.48900000
O 144.76800000 171.97800000 136.39500000
Ni 144.76800000 169.88400000 140.58000000
Ni 144.76800000 171.97800000 142.67400000
Ni 146.85900000 169.88400000 142.67400000
Ni 146.85900000 171.97800000 140.58000000
O 146.85900000 169.88400000 140.58000000
O 146.85900000 171.97800000 142.67400000
O 144.76800000 169.88400000 142.67400000
O 144.76800000 171.97800000 140.58000000
Ni 144.76800000 169.88400000 144.76800000
Ni 144.76800000 171.97800000 146.85900000
Ni 146.85900000 169.88400000 146.85900000
Ni 146.85900000 171.97800000 144.76800000
O 146.85900000 169.88400000 144.76800000
O 146.85900000 171.97800000 146.85900000
O 144.76800000 169.88400000 146.85900000
O 144.76800000 171.97800000 144.76800000
Ni 144.76800000 169.88400000 148.95300000
Ni 144.76800000 171.97800000 151.04700000
Ni 146.85900000 169.88400000 151.04700000
Ni 146.85900000 171.97800000 148.95300000
O 146.85900000 169.88400000 148.95300000
O 146.85900000 171.97800000 151.04700000
O 144.76800000 169.88400000 151.04700000
O 144.76800000 171.97800000 148.95300000
Ni 144.76800000 169.88400000 153.14100000
Ni 144.76800000 171.97800000 155.23200000
Ni 146.85900000 169.88400000 155.23200000
Ni 146.85900000 171.97800000 153.14100000
O 146.85900000 169.88400000 153.14100000
O 146.85900000 171.97800000 155.23200000
O 144.76800000 169.88400000 155.23200000
O 144.76800000 171.97800000 153.14100000
Ni 144.76800000 169.88400000 157.32600000
Ni 144.76800000 171.97800000 159.42000000
Ni 146.85900000 169.88400000 159.42000000
Ni 146.85900000 171.97800000 157.32600000
O 146.85900000 169.88400000 157.32600000
O 146.85900000 171.97800000 159.42000000
O 144.76800000 169.88400000 159.42000000
O 144.76800000 171.97800000 157.32600000
Ni 144.76800000 169.88400000 161.51100000
Ni 144.76800000 171.97800000 163.60500000
Ni 146.85900000 169.88400000 163.60500000
Ni 146.85900000 171.97800000 161.51100000
O 146.85900000 169.88400000 161.51100000
O 146.85900000 171.97800000 163.60500000
O 144.76800000 169.88400000 163.60500000
O 144.76800000 171.97800000 161.51100000
Ni 144.76800000 169.88400000 165.69900000
Ni 144.76800000 171.97800000 167.79300000
Ni 146.85900000 169.88400000 167.79300000
Ni 146.85900000 171.97800000 165.69900000
O 146.85900000 169.88400000 165.69900000
O 146.85900000 171.97800000 167.79300000
O 144.76800000 169.88400000 167.79300000
O 144.76800000 171.97800000 165.69900000
Ni 144.76800000 169.88400000 169.88400000
Ni 146.85900000 169.88400000 171.97800000
Ni 146.85900000 171.97800000 169.88400000
O 146.85900000 169.88400000 169.88400000
Ni 146.85900000 174.07200000 134.30100000
O 144.76800000 174.07200000 134.30100000
Ni 144.76800000 174.07200000 136.39500000
Ni 144.76800000 176.16300000 138.48900000
Ni 146.85900000 174.07200000 138.48900000
Ni 146.85900000 176.16300000 136.39500000
O 146.85900000 174.07200000 136.39500000
O 146.85900000 176.16300000 138.48900000
O 144.76800000 174.07200000 138.48900000
O 144.76800000 176.16300000 136.39500000
Ni 144.76800000 174.07200000 140.58000000
Ni 144.76800000 176.16300000 142.67400000
Ni 146.85900000 174.07200000 142.67400000
Ni 146.85900000 176.16300000 140.58000000
O 146.85900000 174.07200000 140.58000000
O 146.85900000 176.16300000 142.67400000
O 144.76800000 174.07200000 142.67400000
O 144.76800000 176.16300000 140.58000000
Ni 144.76800000 174.07200000 144.76800000
Ni 144.76800000 176.16300000 146.85900000
Ni 146.85900000 174.07200000 146.85900000
Ni 146.85900000 176.16300000 144.76800000
O 146.85900000 174.07200000 144.76800000
O 146.85900000 176.16300000 146.85900000
O 144.76800000 174.07200000 146.85900000
O 144.76800000 176.16300000 144.76800000
Ni 144.76800000 174.07200000 148.95300000
Ni 144.76800000 176.16300000 151.04700000
Ni 146.85900000 174.07200000 151.04700000
Ni 146.85900000 176.16300000 148.95300000
O 146.85900000 174.07200000 148.95300000
O 146.85900000 176.16300000 151.04700000
O 144.76800000 174.07200000 151.04700000
O 144.76800000 176.16300000 148.95300000
Ni 144.76800000 174.07200000 153.14100000
Ni 144.76800000 176.16300000 155.23200000
Ni 146.85900000 174.07200000 155.23200000
Ni 146.85900000 176.16300000 153.14100000
O 146.85900000 174.07200000 153.14100000
O 146.85900000 176.16300000 155.23200000
O 144.76800000 174.07200000 155.23200000
O 144.76800000 176.16300000 153.14100000
Ni 144.76800000 174.07200000 157.32600000
Ni 144.76800000 176.16300000 159.42000000
Ni 146.85900000 174.07200000 159.42000000
Ni 146.85900000 176.16300000 157.32600000
O 146.85900000 174.07200000 157.32600000
O 146.85900000 176.16300000 159.42000000
O 144.76800000 174.07200000 159.42000000
O 144.76800000 176.16300000 157.32600000
Ni 144.76800000 174.07200000 161.51100000
Ni 144.76800000 176.16300000 163.60500000
Ni 146.85900000 174.07200000 163.60500000
Ni 146.85900000 176.16300000 161.51100000
O 146.85900000 174.07200000 161.51100000
O 146.85900000 176.16300000 163.60500000
O 144.76800000 174.07200000 163.60500000
O 144.76800000 176.16300000 161.51100000
Ni 144.76800000 174.07200000 165.69900000
O 146.85900000 174.07200000 165.69900000
Ni 146.85900000 178.25700000 142.67400000
O 146.85900000 178.25700000 140.58000000
O 144.76800000 178.25700000 142.67400000
Ni 144.76800000 178.25700000 144.76800000
Ni 146.85900000 178.25700000 146.85900000
O 146.85900000 178.25700000 144.76800000
O 144.76800000 178.25700000 146.85900000
Ni 144.76800000 178.25700000 148.95300000
Ni 146.85900000 178.25700000 151.04700000
O 146.85900000 178.25700000 148.95300000
O 144.76800000 178.25700000 151.04700000
Ni 144.76800000 178.25700000 153.14100000
Ni 146.85900000 178.25700000 155.23200000
O 146.85900000 178.25700000 153.14100000
O 144.76800000 178.25700000 155.23200000
Ni 144.76800000 178.25700000 157.32600000
Ni 146.85900000 178.25700000 159.42000000
O 146.85900000 178.25700000 157.32600000
Ni 148.95300000 121.74300000 142.67400000
Ni 151.04700000 121.74300000 140.58000000
O 151.04700000 121.74300000 142.67400000
O 148.95300000 121.74300000 140.58000000
Ni 148.95300000 121.74300000 146.85900000
Ni 151.04700000 121.74300000 144.76800000
O 151.04700000 121.74300000 146.85900000
O 148.95300000 121.74300000 144.76800000
Ni 148.95300000 121.74300000 151.04700000
Ni 151.04700000 121.74300000 148.95300000
O 151.04700000 121.74300000 151.04700000
O 148.95300000 121.74300000 148.95300000
Ni 148.95300000 121.74300000 155.23200000
Ni 151.04700000 121.74300000 153.14100000
O 151.04700000 121.74300000 155.23200000
O 148.95300000 121.74300000 153.14100000
Ni 148.95300000 121.74300000 159.42000000
Ni 151.04700000 121.74300000 157.32600000
O 151.04700000 121.74300000 159.42000000
O 148.95300000 121.74300000 157.32600000
Ni 148.95300000 125.92800000 134.30100000
Ni 151.04700000 125.92800000 132.20700000
O 151.04700000 125.92800000 134.30100000
O 148.95300000 125.92800000 132.20700000
Ni 148.95300000 123.83700000 136.39500000
Ni 148.95300000 125.92800000 138.48900000
Ni 151.04700000 123.83700000 138.48900000
Ni 151.04700000 125.92800000 136.39500000
O 151.04700000 123.83700000 136.39500000
O 151.04700000 125.92800000 138.48900000
O 148.95300000 123.83700000 138.48900000
O 148.95300000 125.92800000 136.39500000
Ni 148.95300000 123.83700000 140.58000000
Ni 148.95300000 125.92800000 142.67400000
Ni 151.04700000 123.83700000 142.67400000
Ni 151.04700000 125.92800000 140.58000000
O 151.04700000 123.83700000 140.58000000
O 151.04700000 125.92800000 142.67400000
O 148.95300000 123.83700000 142.67400000
O 148.95300000 125.92800000 140.58000000
Ni 148.95300000 123.83700000 144.76800000
Ni 148.95300000 125.92800000 146.85900000
Ni 151.04700000 123.83700000 146.85900000
Ni 151.04700000 125.92800000 144.76800000
O 151.04700000 123.83700000 144.76800000
O 151.04700000 125.92800000 146.85900000
O 148.95300000 123.83700000 146.85900000
O 148.95300000 125.92800000 144.76800000
Ni 148.95300000 123.83700000 148.95300000
Ni 148.95300000 125.92800000 151.04700000
Ni 151.04700000 123.83700000 151.04700000
Ni 151.04700000 125.92800000 148.95300000
O 151.04700000 123.83700000 148.95300000
O 151.04700000 125.92800000 151.04700000
O 148.95300000 123.83700000 151.04700000
O 148.95300000 125.92800000 148.95300000
Ni 148.95300000 123.83700000 153.14100000
Ni 148.95300000 125.92800000 155.23200000
Ni 151.04700000 123.83700000 155.23200000
Ni 151.04700000 125.92800000 153.14100000
O 151.04700000 123.83700000 153.14100000
O 151.04700000 125.92800000 155.23200000
O 148.95300000 123.83700000 155.23200000
O 148.95300000 125.92800000 153.14100000
Ni 148.95300000 123.83700000 157.32600000
Ni 148.95300000 125.92800000 159.42000000
Ni 151.04700000 123.83700000 159.42000000
Ni 151.04700000 125.92800000 157.32600000
O 151.04700000 123.83700000 157.32600000
O 151.04700000 125.92800000 159.42000000
O 148.95300000 123.83700000 159.42000000
O 148.95300000 125.92800000 157.32600000
Ni 148.95300000 123.83700000 161.51100000
Ni 148.95300000 125.92800000 163.60500000
Ni 151.04700000 123.83700000 163.60500000
Ni 151.04700000 125.92800000 161.51100000
O 151.04700000 123.83700000 161.51100000
O 151.04700000 125.92800000 163.60500000
O 148.95300000 123.83700000 163.60500000
O 148.95300000 125.92800000 161.51100000
Ni 148.95300000 125.92800000 167.79300000
Ni 151.04700000 125.92800000 165.69900000
O 151.04700000 125.92800000 167.79300000
O 148.95300000 125.92800000 165.69900000
Ni 148.95300000 130.11600000 130.11600000
Ni 151.04700000 128.02200000 130.11600000
Ni 151.04700000 130.11600000 128.02200000
O 151.04700000 130.11600000 130.11600000
O 148.95300000 128.02200000 130.11600000
O 148.95300000 130.11600000 128.02200000
Ni 148.95300000 128.02200000 132.20700000
Ni 148.95300000 130.11600000 134.30100000
Ni 151.04700000 128.02200000 134.30100000
Ni 151.04700000 130.11600000 132.20700000
O 151.04700000 128.02200000 132.20700000
O 151.04700000 130.11600000 134.30100000
O 148.95300000 128.02200000 134.30100000
O 148.95300000 130.11600000 132.20700000
Ni 148.95300000 128.02200000 136.39500000
Ni 148.95300000 130.11600000 138.48900000
Ni 151.04700000 128.02200000 138.48900000
Ni 151.04700000 130.11600000 136.39500000
O 151.04700000 128.02200000 136.39500000
O 151.04700000 130.11600000 138.48900000
O 148.95300000 128.02200000 138.48900000
O 148.95300000 130.11600000 136.39500000
Ni 148.95300000 128.02200000 140.58000000
Ni 148.95300000 130.11600000 142.67400000
Ni 151.04700000 128.02200000 142.67400000
Ni 151.04700000 130.11600000 140.58000000
O 151.04700000 128.02200000 140.58000000
O 151.04700000 130.11600000 142.67400000
O 148.95300000 128.02200000 142.67400000
O 148.95300000 130.11600000 140.58000000
Ni 148.95300000 128.02200000 144.76800000
Ni 148.95300000 130.11600000 146.85900000
Ni 151.04700000 128.02200000 146.85900000
Ni 151.04700000 130.11600000 144.76800000
O 151.04700000 128.02200000 144.76800000
O 151.04700000 130.11600000 146.85900000
O 148.95300000 128.02200000 146.85900000
O 148.95300000 130.11600000 144.76800000
Ni 148.95300000 128.02200000 148.95300000
Ni 148.95300000 130.11600000 151.04700000
Ni 151.04700000 128.02200000 151.04700000
Ni 151.04700000 130.11600000 148.95300000
O 151.04700000 128.02200000 148.95300000
O 151.04700000 130.11600000 151.04700000
O 148.95300000 128.02200000 151.04700000
O 148.95300000 130.11600000 148.95300000
Ni 148.95300000 128.02200000 153.14100000
Ni 148.95300000 130.11600000 155.23200000
Ni 151.04700000 128.02200000 155.23200000
Ni 151.04700000 130.11600000 153.14100000
O 151.04700000 128.02200000 153.14100000
O 151.04700000 130.11600000 155.23200000
O 148.95300000 128.02200000 155.23200000
O 148.95300000 130.11600000 153.14100000
Ni 148.95300000 128.02200000 157.32600000
Ni 148.95300000 130.11600000 159.42000000
Ni 151.04700000 128.02200000 159.42000000
Ni 151.04700000 130.11600000 157.32600000
O 151.04700000 128.02200000 157.32600000
O 151.04700000 130.11600000 159.42000000
O 148.95300000 128.02200000 159.42000000
O 148.95300000 130.11600000 157.32600000
Ni 148.95300000 128.02200000 161.51100000
Ni 148.95300000 130.11600000 163.60500000
Ni 151.04700000 128.02200000 163.60500000
Ni 151.04700000 130.11600000 161.51100000
O 151.04700000 128.02200000 161.51100000
O 151.04700000 130.11600000 163.60500000
O 148.95300000 128.02200000 163.60500000
O 148.95300000 130.11600000 161.51100000
Ni 148.95300000 128.02200000 165.69900000
Ni 148.95300000 130.11600000 167.79300000
Ni 151.04700000 128.02200000 167.79300000
Ni 151.04700000 130.11600000 165.69900000
O 151.04700000 128.02200000 165.69900000
O 151.04700000 130.11600000 167.79300000
O 148.95300000 128.02200000 167.79300000
O 148.95300000 130.11600000 165.69900000
Ni 148.95300000 128.02200000 169.88400000
Ni 148.95300000 130.11600000 171.97800000
Ni 151.04700000 130.11600000 169.88400000
O 151.04700000 128.02200000 169.88400000
O 151.04700000 130.11600000 171.97800000
O 148.95300000 130.11600000 169.88400000
Ni 148.95300000 134.30100000 125.92800000
Ni 151.04700000 132.20700000 125.92800000
O 151.04700000 134.30100000 125.92800000
O 148.95300000 132.20700000 125.92800000
Ni 148.95300000 132.20700000 128.02200000
Ni 148.95300000 134.30100000 130.11600000
Ni 151.04700000 132.20700000 130.11600000
Ni 151.04700000 134.30100000 128.02200000
O 151.04700000 132.20700000 128.02200000
O 151.04700000 134.30100000 130.11600000
O 148.95300000 132.20700000 130.11600000
O 148.95300000 134.30100000 128.02200000
Ni 148.95300000 132.20700000 132.20700000
Ni 148.95300000 134.30100000 134.30100000
Ni 151.04700000 132.20700000 134.30100000
Ni 151.04700000 134.30100000 132.20700000
O 151.04700000 132.20700000 132.20700000
O 151.04700000 134.30100000 134.30100000
O 148.95300000 132.20700000 134.30100000
O 148.95300000 134.30100000 132.20700000
Ni 148.95300000 132.20700000 136.39500000
Ni 148.95300000 134.30100000 138.48900000
Ni 151.04700000 132.20700000 138.48900000
Ni 151.04700000 134.30100000 136.39500000
O 151.04700000 132.20700000 136.39500000
O 151.04700000 134.30100000 138.48900000
O 148.95300000 132.20700000 138.48900000
O 148.95300000 134.30100000 136.39500000
Ni 148.95300000 132.20700000 140.58000000
Ni 148.95300000 134.30100000 142.67400000
Ni 151.04700000 132.20700000 142.67400000
Ni 151.04700000 134.30100000 140.58000000
O 151.04700000 132.20700000 140.58000000
O 151.04700000 134.30100000 142.67400000
O 148.95300000 132.20700000 142.67400000
O 148.95300000 134.30100000 140.58000000
Ni 148.95300000 132.20700000 144.76800000
Ni 148.95300000 134.30100000 146.85900000
Ni 151.04700000 132.20700000 146.85900000
Ni 151.04700000 134.30100000 144.76800000
O 151.04700000 132.20700000 144.76800000
O 151.04700000 134.30100000 146.85900000
O 148.95300000 132.20700000 146.85900000
O 148.95300000 134.30100000 144.76800000
Ni 148.95300000 132.20700000 148.95300000
Ni 148.95300000 134.30100000 151.04700000
Ni 151.04700000 132.20700000 151.04700000
Ni 151.04700000 134.30100000 148.95300000
O 151.04700000 132.20700000 148.95300000
O 151.04700000 134.30100000 151.04700000
O 148.95300000 132.20700000 151.04700000
O 148.95300000 134.30100000 148.95300000
Ni 148.95300000 132.20700000 153.14100000
Ni 148.95300000 134.30100000 155.23200000
Ni 151.04700000 132.20700000 155.23200000
Ni 151.04700000 134.30100000 153.14100000
O 151.04700000 132.20700000 153.14100000
O 151.04700000 134.30100000 155.23200000
O 148.95300000 132.20700000 155.23200000
O 148.95300000 134.30100000 153.14100000
Ni 148.95300000 132.20700000 157.32600000
Ni 148.95300000 134.30100000 159.42000000
Ni 151.04700000 132.20700000 159.42000000
Ni 151.04700000 134.30100000 157.32600000
O 151.04700000 132.20700000 157.32600000
O 151.04700000 134.30100000 159.42000000
O 148.95300000 132.20700000 159.42000000
O 148.95300000 134.30100000 157.32600000
Ni 148.95300000 132.20700000 161.51100000
Ni 148.95300000 134.30100000 163.60500000
Ni 151.04700000 132.20700000 163.60500000
Ni 151.04700000 134.30100000 161.51100000
O 151.04700000 132.20700000 161.51100000
O 151.04700000 134.30100000 163.60500000
O 148.95300000 132.20700000 163.60500000
O 148.95300000 134.30100000 161.51100000
Ni 148.95300000 132.20700000 165.69900000
Ni 148.95300000 134.30100000 167.79300000
Ni 151.04700000 132.20700000 167.79300000
Ni 151.04700000 134.30100000 165.69900000
O 151.04700000 132.20700000 165.69900000
O 151.04700000 134.30100000 167.79300000
O 148.95300000 132.20700000 167.79300000
O 148.95300000 134.30100000 165.69900000
Ni 148.95300000 132.20700000 169.88400000
Ni 148.95300000 134.30100000 171.97800000
Ni 151.04700000 132.20700000 171.97800000
Ni 151.04700000 134.30100000 169.88400000
O 151.04700000 132.20700000 169.88400000
O 151.04700000 134.30100000 171.97800000
O 148.95300000 132.20700000 171.97800000
O 148.95300000 134.30100000 169.88400000
Ni 148.95300000 132.20700000 174.07200000
Ni 151.04700000 134.30100000 174.07200000
O 151.04700000 132.20700000 174.07200000
O 148.95300000 134.30100000 174.07200000
Ni 148.95300000 136.39500000 123.83700000
Ni 148.95300000 138.48900000 125.92800000
Ni 151.04700000 136.39500000 125.92800000
Ni 151.04700000 138.48900000 123.83700000
O 151.04700000 136.39500000 123.83700000
O 151.04700000 138.48900000 125.92800000
O 148.95300000 136.39500000 125.92800000
O 148.95300000 138.48900000 123.83700000
Ni 148.95300000 136.39500000 128.02200000
Ni 148.95300000 138.48900000 130.11600000
Ni 151.04700000 136.39500000 130.11600000
Ni 151.04700000 138.48900000 128.02200000
O 151.04700000 136.39500000 128.02200000
O 151.04700000 138.48900000 130.11600000
O 148.95300000 136.39500000 130.11600000
O 148.95300000 138.48900000 128.02200000
Ni 148.95300000 136.39500000 132.20700000
Ni 148.95300000 138.48900000 134.30100000
Ni 151.04700000 136.39500000 134.30100000
Ni 151.04700000 138.48900000 132.20700000
O 151.04700000 136.39500000 132.20700000
O 151.04700000 138.48900000 134.30100000
O 148.95300000 136.39500000 134.30100000
O 148.95300000 138.48900000 132.20700000
Ni 148.95300000 136.39500000 136.39500000
Ni 148.95300000 138.48900000 138.48900000
Ni 151.04700000 136.39500000 138.48900000
Ni 151.04700000 138.48900000 136.39500000
O 151.04700000 136.39500000 136.39500000
O 151.04700000 138.48900000 138.48900000
O 148.95300000 136.39500000 138.48900000
O 148.95300000 138.48900000 136.39500000
Ni 148.95300000 136.39500000 140.58000000
Ni 148.95300000 138.48900000 142.67400000
Ni 151.04700000 136.39500000 142.67400000
Ni 151.04700000 138.48900000 140.58000000
O 151.04700000 136.39500000 140.58000000
O 151.04700000 138.48900000 142.67400000
O 148.95300000 136.39500000 142.67400000
O 148.95300000 138.48900000 140.58000000
Ni 148.95300000 136.39500000 144.76800000
Ni 148.95300000 138.48900000 146.85900000
Ni 151.04700000 136.39500000 146.85900000
Ni 151.04700000 138.48900000 144.76800000
O 151.04700000 136.39500000 144.76800000
O 151.04700000 138.48900000 146.85900000
O 148.95300000 136.39500000 146.85900000
O 148.95300000 138.48900000 144.76800000
Ni 148.95300000 136.39500000 148.95300000
Ni 148.95300000 138.48900000 151.04700000
Ni 151.04700000 136.39500000 151.04700000
Ni 151.04700000 138.48900000 148.95300000
O 151.04700000 136.39500000 148.95300000
O 151.04700000 138.48900000 151.04700000
O 148.95300000 136.39500000 151.04700000
O 148.95300000 138.48900000 148.95300000
Ni 148.95300000 136.39500000 153.14100000
Ni 148.95300000 138.48900000 155.23200000
Ni 151.04700000 136.39500000 155.23200000
Ni 151.04700000 138.48900000 153.14100000
O 151.04700000 136.39500000 153.14100000
O 151.04700000 138.48900000 155.23200000
O 148.95300000 136.39500000 155.23200000
O 148.95300000 138.48900000 153.14100000
Ni 148.95300000 136.39500000 157.32600000
Ni 148.95300000 138.48900000 159.42000000
Ni 151.04700000 136.39500000 159.42000000
Ni 151.04700000 138.48900000 157.32600000
O 151.04700000 136.39500000 157.32600000
O 151.04700000 138.48900000 159.42000000
O 148.95300000 136.39500000 159.42000000
O 148.95300000 138.48900000 157.32600000
Ni 148.95300000 136.39500000 161.51100000
Ni 148.95300000 138.48900000 163.60500000
Ni 151.04700000 136.39500000 163.60500000
Ni 151.04700000 138.48900000 161.51100000
O 151.04700000 136.39500000 161.51100000
O 151.04700000 138.48900000 163.60500000
O 148.95300000 136.39500000 163.60500000
O 148.95300000 138.48900000 161.51100000
Ni 148.95300000 136.39500000 165.69900000
Ni 148.95300000 138.48900000 167.79300000
Ni 151.04700000 136.39500000 167.79300000
Ni 151.04700000 138.48900000 165.69900000
O 151.04700000 136.39500000 165.69900000
O 151.04700000 138.48900000 167.79300000
O 148.95300000 136.39500000 167.79300000
O 148.95300000 138.48900000 165.69900000
Ni 148.95300000 136.39500000 169.88400000
Ni 148.95300000 138.48900000 171.97800000
Ni 151.04700000 136.39500000 171.97800000
Ni 151.04700000 138.48900000 169.88400000
O 151.04700000 136.39500000 169.88400000
O 151.04700000 138.48900000 171.97800000
O 148.95300000 136.39500000 171.97800000
O 148.95300000 138.48900000 169.88400000
Ni 148.95300000 136.39500000 174.07200000
Ni 148.95300000 138.48900000 176.16300000
Ni 151.04700000 136.39500000 176.16300000
Ni 151.04700000 138.48900000 174.07200000
O 151.04700000 136.39500000 174.07200000
O 151.04700000 138.48900000 176.16300000
O 148.95300000 136.39500000 176.16300000
O 148.95300000 138.48900000 174.07200000
Ni 148.95300000 142.67400000 121.74300000
Ni 151.04700000 140.58000000 121.74300000
O 151.04700000 142.67400000 121.74300000
O 148.95300000 140.58000000 121.74300000
Ni 148.95300000 140.58000000 123.83700000
Ni 148.95300000 142.67400000 125.92800000
Ni 151.04700000 140.58000000 125.92800000
Ni 151.04700000 142.67400000 123.83700000
O 151.04700000 140.58000000 123.83700000
O 151.04700000 142.67400000 125.92800000
O 148.95300000 140.58000000 125.92800000
O 148.95300000 142.67400000 123.83700000
Ni 148.95300000 140.58000000 128.02200000
Ni 148.95300000 142.67400000 130.11600000
Ni 151.04700000 140.58000000 130.11600000
Ni 151.04700000 142.67400000 128.02200000
O 151.04700000 140.58000000 128.02200000
O 151.04700000 142.67400000 130.11600000
O 148.95300000 140.58000000 130.11600000
O 148.95300000 142.67400000 128.02200000
Ni 148.95300000 140.58000000 132.20700000
Ni 148.95300000 142.67400000 134.30100000
Ni 151.04700000 140.58000000 134.30100000
Ni 151.04700000 142.67400000 132.20700000
O 151.04700000 140.58000000 132.20700000
O 151.04700000 142.67400000 134.30100000
O 148.95300000 140.58000000 134.30100000
O 148.95300000 142.67400000 132.20700000
Ni 148.95300000 140.58000000 136.39500000
Ni 148.95300000 142.67400000 138.48900000
Ni 151.04700000 140.58000000 138.48900000
Ni 151.04700000 142.67400000 136.39500000
O 151.04700000 140.58000000 136.39500000
O 151.04700000 142.67400000 138.48900000
O 148.95300000 140.58000000 138.48900000
O 148.95300000 142.67400000 136.39500000
Ni 148.95300000 140.58000000 140.58000000
Ni 148.95300000 142.67400000 142.67400000
Ni 151.04700000 140.58000000 142.67400000
Ni 151.04700000 142.67400000 140.58000000
O 151.04700000 140.58000000 140.58000000
O 151.04700000 142.67400000 142.67400000
O 148.95300000 140.58000000 142.67400000
O 148.95300000 142.67400000 140.58000000
Ni 148.95300000 140.58000000 144.76800000
Ni 148.95300000 142.67400000 146.85900000
Ni 151.04700000 140.58000000 146.85900000
Ni 151.04700000 142.67400000 144.76800000
O 151.04700000 140.58000000 144.76800000
O 151.04700000 142.67400000 146.85900000
O 148.95300000 140.58000000 146.85900000
O 148.95300000 142.67400000 144.76800000
Ni 148.95300000 140.58000000 148.95300000
Ni 148.95300000 142.67400000 151.04700000
Ni 151.04700000 140.58000000 151.04700000
Ni 151.04700000 142.67400000 148.95300000
O 151.04700000 140.58000000 148.95300000
O 151.04700000 142.67400000 151.04700000
O 148.95300000 140.58000000 151.04700000
O 148.95300000 142.67400000 148.95300000
Ni 148.95300000 140.58000000 153.14100000
Ni 148.95300000 142.67400000 155.23200000
Ni 151.04700000 140.58000000 155.23200000
Ni 151.04700000 142.67400000 153.14100000
O 151.04700000 140.58000000 153.14100000
O 151.04700000 142.67400000 155.23200000
O 148.95300000 140.58000000 155.23200000
O 148.95300000 142.67400000 153.14100000
Ni 148.95300000 140.58000000 157.32600000
Ni 148.95300000 142.67400000 159.42000000
Ni 151.04700000 140.58000000 159.42000000
Ni 151.04700000 142.67400000 157.32600000
O 151.04700000 140.58000000 157.32600000
O 151.04700000 142.67400000 159.42000000
O 148.95300000 140.58000000 159.42000000
O 148.95300000 142.67400000 157.32600000
Ni 148.95300000 140.58000000 161.51100000
Ni 148.95300000 142.67400000 163.60500000
Ni 151.04700000 140.58000000 163.60500000
Ni 151.04700000 142.67400000 161.51100000
O 151.04700000 140.58000000 161.51100000
O 151.04700000 142.67400000 163.60500000
O 148.95300000 140.58000000 163.60500000
O 148.95300000 142.67400000 161.51100000
Ni 148.95300000 140.58000000 165.69900000
Ni 148.95300000 142.67400000 167.79300000
Ni 151.04700000 140.58000000 167.79300000
Ni 151.04700000 142.67400000 165.69900000
O 151.04700000 140.58000000 165.69900000
O 151.04700000 142.67400000 167.79300000
O 148.95300000 140.58000000 167.79300000
O 148.95300000 142.67400000 165.69900000
Ni 148.95300000 140.58000000 169.88400000
Ni 148.95300000 142.67400000 171.97800000
Ni 151.04700000 140.58000000 171.97800000
Ni 151.04700000 142.67400000 169.88400000
O 151.04700000 140.58000000 169.88400000
O 151.04700000 142.67400000 171.97800000
O 148.95300000 140.58000000 171.97800000
O 148.95300000 142.67400000 169.88400000
Ni 148.95300000 140.58000000 174.07200000
Ni 148.95300000 142.67400000 176.16300000
Ni 151.04700000 140.58000000 176.16300000
Ni 151.04700000 142.67400000 174.07200000
O 151.04700000 140.58000000 174.07200000
O 151.04700000 142.67400000 176.16300000
O 148.95300000 140.58000000 176.16300000
O 148.95300000 142.67400000 174.07200000
Ni 148.95300000 140.58000000 178.25700000
Ni 151.04700000 142.67400000 178.25700000
O 151.04700000 140.58000000 178.25700000
O 148.95300000 142.67400000 178.25700000
Ni 148.95300000 146.85900000 121.74300000
Ni 151.04700000 144.76800000 121.74300000
O 151.04700000 146.85900000 121.74300000
O 148.95300000 144.76800000 121.74300000
Ni 148.95300000 144.76800000 123.83700000
Ni 148.95300000 146.85900000 125.92800000
Ni 151.04700000 144.76800000 125.92800000
Ni 151.04700000 146.85900000 123.83700000
O 151.04700000 144.76800000 123.83700000
O 151.04700000 146.85900000 125.92800000
O 148.95300000 144.76800000 125.92800000
O 148.95300000 146.85900000 123.83700000
Ni 148.95300000 144.76800000 128.02200000
Ni 148.95300000 146.85900000 130.11600000
Ni 151.04700000 144.76800000 130.11600000
Ni 151.04700000 146.85900000 128.02200000
O 151.04700000 144.76800000 128.02200000
O 151.04700000 146.85900000 130.11600000
O 148.95300000 144.76800000 130.11600000
O 148.95300000 146.85900000 128.02200000
Ni 148.95300000 144.76800000 132.20700000
Ni 148.95300000 146.85900000 134.30100000
Ni 151.04700000 144.76800000 134.30100000
Ni 151.04700000 146.85900000 132.20700000
O 151.04700000 144.76800000 132.20700000
O 151.04700000 146.85900000 134.30100000
O 148.95300000 144.76800000 134.30100000
O 148.95300000 146.85900000 132.20700000
Ni 148.95300000 144.76800000 136.39500000
Ni 148.95300000 146.85900000 138.48900000
Ni 151.04700000 144.76800000 138.48900000
Ni 151.04700000 146.85900000 136.39500000
O 151.04700000 144.76800000 136.39500000
O 151.04700000 146.85900000 138.48900000
O 148.95300000 144.76800000 138.48900000
O 148.95300000 146.85900000 136.39500000
Ni 148.95300000 144.76800000 140.58000000
Ni 148.95300000 146.85900000 142.67400000
Ni 151.04700000 144.76800000 142.67400000
Ni 151.04700000 146.85900000 140.58000000
O 151.04700000 144.76800000 140.58000000
O 151.04700000 146.85900000 142.67400000
O 148.95300000 144.76800000 142.67400000
O 148.95300000 146.85900000 140.58000000
Ni 148.95300000 144.76800000 144.76800000
Ni 148.95300000 146.85900000 146.85900000
Ni 151.04700000 144.76800000 146.85900000
Ni 151.04700000 146.85900000 144.76800000
O 151.04700000 144.76800000 144.76800000
O 151.04700000 146.85900000 146.85900000
O 148.95300000 144.76800000 146.85900000
O 148.95300000 146.85900000 144.76800000
Ni 148.95300000 144.76800000 148.95300000
Ni 148.95300000 146.85900000 151.04700000
Ni 151.04700000 144.76800000 151.04700000
Ni 151.04700000 146.85900000 148.95300000
O 151.04700000 144.76800000 148.95300000
O 151.04700000 146.85900000 151.04700000
O 148.95300000 144.76800000 151.04700000
O 148.95300000 146.85900000 148.95300000
Ni 148.95300000 144.76800000 153.14100000
Ni 148.95300000 146.85900000 155.23200000
Ni 151.04700000 144.76800000 155.23200000
Ni 151.04700000 146.85900000 153.14100000
O 151.04700000 144.76800000 153.14100000
O 151.04700000 146.85900000 155.23200000
O 148.95300000 144.76800000 155.23200000
O 148.95300000 146.85900000 153.14100000
Ni 148.95300000 144.76800000 157.32600000
Ni 148.95300000 146.85900000 159.42000000
Ni 151.04700000 144.76800000 159.42000000
Ni 151.04700000 146.85900000 157.32600000
O 151.04700000 144.76800000 157.32600000
O 151.04700000 146.85900000 159.42000000
O 148.95300000 144.76800000 159.42000000
O 148.95300000 146.85900000 157.32600000
Ni 148.95300000 144.76800000 161.51100000
Ni 148.95300000 146.85900000 163.60500000
Ni 151.04700000 144.76800000 163.60500000
Ni 151.04700000 146.85900000 161.51100000
O 151.04700000 144.76800000 161.51100000
O 151.04700000 146.85900000 163.60500000
O 148.95300000 144.76800000 163.60500000
O 148.95300000 146.85900000 161.51100000
Ni 148.95300000 144.76800000 165.69900000
Ni 148.95300000 146.85900000 167.79300000
Ni 151.04700000 144.76800000 167.79300000
Ni 151.04700000 146.85900000 165.69900000
O 151.04700000 144.76800000 165.69900000
O 151.04700000 146.85900000 167.79300000
O 148.95300000 144.76800000 167.79300000
O 148.95300000 146.85900000 165.69900000
Ni 148.95300000 144.76800000 169.88400000
Ni 148.95300000 146.85900000 171.97800000
Ni 151.04700000 144.76800000 171.97800000
Ni 151.04700000 146.85900000 169.88400000
O 151.04700000 144.76800000 169.88400000
O 151.04700000 146.85900000 171.97800000
O 148.95300000 144.76800000 171.97800000
O 148.95300000 146.85900000 169.88400000
Ni 148.95300000 144.76800000 174.07200000
Ni 148.95300000 146.85900000 176.16300000
Ni 151.04700000 144.76800000 176.16300000
Ni 151.04700000 146.85900000 174.07200000
O 151.04700000 144.76800000 174.07200000
O 151.04700000 146.85900000 176.16300000
O 148.95300000 144.76800000 176.16300000
O 148.95300000 146.85900000 174.07200000
Ni 148.95300000 144.76800000 178.25700000
Ni 151.04700000 146.85900000 178.25700000
O 151.04700000 144.76800000 178.25700000
O 148.95300000 146.85900000 178.25700000
Ni 148.95300000 151.04700000 121.74300000
Ni 151.04700000 148.95300000 121.74300000
O 151.04700000 151.04700000 121.74300000
O 148.95300000 148.95300000 121.74300000
Ni 148.95300000 148.95300000 123.83700000
Ni 148.95300000 151.04700000 125.92800000
Ni 151.04700000 148.95300000 125.92800000
Ni 151.04700000 151.04700000 123.83700000
O 151.04700000 148.95300000 123.83700000
O 151.04700000 151.04700000 125.92800000
O 148.95300000 148.95300000 125.92800000
O 148.95300000 151.04700000 123.83700000
Ni 148.95300000 148.95300000 128.02200000
Ni 148.95300000 151.04700000 130.11600000
Ni 151.04700000 148.95300000 130.11600000
Ni 151.04700000 151.04700000 128.02200000
O 151.04700000 148.95300000 128.02200000
O 151.04700000 151.04700000 130.11600000
O 148.95300000 148.95300000 130.11600000
O 148.95300000 151.04700000 128.02200000
Ni 148.95300000 148.95300000 132.20700000
Ni 148.95300000 151.04700000 134.30100000
Ni 151.04700000 148.95300000 134.30100000
Ni 151.04700000 151.04700000 132.20700000
O 151.04700000 148.95300000 132.20700000
O 151.04700000 151.04700000 134.30100000
O 148.95300000 148.95300000 134.30100000
O 148.95300000 151.04700000 132.20700000
Ni 148.95300000 148.95300000 136.39500000
Ni 148.95300000 151.04700000 138.48900000
Ni 151.04700000 148.95300000 138.48900000
Ni 151.04700000 151.04700000 136.39500000
O 151.04700000 148.95300000 136.39500000
O 151.04700000 151.04700000 138.48900000
O 148.95300000 148.95300000 138.48900000
O 148.95300000 151.04700000 136.39500000
Ni 148.95300000 148.95300000 140.58000000
Ni 148.95300000 151.04700000 142.67400000
Ni 151.04700000 148.95300000 142.67400000
Ni 151.04700000 151.04700000 140.58000000
O 151.04700000 148.95300000 140.58000000
O 151.04700000 151.04700000 142.67400000
O 148.95300000 148.95300000 142.67400000
O 148.95300000 151.04700000 140.58000000
Ni 148.95300000 148.95300000 144.76800000
Ni 148.95300000 151.04700000 146.85900000
Ni 151.04700000 148.95300000 146.85900000
Ni 151.04700000 151.04700000 144.76800000
O 151.04700000 148.95300000 144.76800000
O 151.04700000 151.04700000 146.85900000
O 148.95300000 148.95300000 146.85900000
O 148.95300000 151.04700000 144.76800000
Ni 148.95300000 148.95300000 148.95300000
Ni 148.95300000 151.04700000 151.04700000
Ni 151.04700000 148.95300000 151.04700000
Ni 151.04700000 151.04700000 148.95300000
O 151.04700000 148.95300000 148.95300000
O 151.04700000 151.04700000 151.04700000
O 148.95300000 148.95300000 151.04700000
O 148.95300000 151.04700000 148.95300000
Ni 148.95300000 148.95300000 153.14100000
Ni 148.95300000 151.04700000 155.23200000
Ni 151.04700000 148.95300000 155.23200000
Ni 151.04700000 151.04700000 153.14100000
O 151.04700000 148.95300000 153.14100000
O 151.04700000 151.04700000 155.23200000
O 148.95300000 148.95300000 155.23200000
O 148.95300000 151.04700000 153.14100000
Ni 148.95300000 148.95300000 157.32600000
Ni 148.95300000 151.04700000 159.42000000
Ni 151.04700000 148.95300000 159.42000000
Ni 151.04700000 151.04700000 157.32600000
O 151.04700000 148.95300000 157.32600000
O 151.04700000 151.04700000 159.42000000
O 148.95300000 148.95300000 159.42000000
O 148.95300000 151.04700000 157.32600000
Ni 148.95300000 148.95300000 161.51100000
Ni 148.95300000 151.04700000 163.60500000
Ni 151.04700000 148.95300000 163.60500000
Ni 151.04700000 151.04700000 161.51100000
O 151.04700000 148.95300000 161.51100000
O 151.04700000 151.04700000 163.60500000
O 148.95300000 148.95300000 163.60500000
O 148.95300000 151.04700000 161.51100000
Ni 148.95300000 148.95300000 165.69900000
Ni 148.95300000 151.04700000 167.79300000
Ni 151.04700000 148.95300000 167.79300000
Ni 151.04700000 151.04700000 165.69900000
O 151.04700000 148.95300000 165.69900000
O 151.04700000 151.04700000 167.79300000
O 148.95300000 148.95300000 167.79300000
O 148.95300000 151.04700000 165.69900000
Ni 148.95300000 148.95300000 169.88400000
Ni 148.95300000 151.04700000 171.97800000
Ni 151.04700000 148.95300000 171.97800000
Ni 151.04700000 151.04700000 169.88400000
O 151.04700000 148.95300000 169.88400000
O 151.04700000 151.04700000 171.97800000
O 148.95300000 148.95300000 171.97800000
O 148.95300000 151.04700000 169.88400000
Ni 148.95300000 148.95300000 174.07200000
Ni 148.95300000 151.04700000 176.16300000
Ni 151.04700000 148.95300000 176.16300000
Ni 151.04700000 151.04700000 174.07200000
O 151.04700000 148.95300000 174.07200000
O 151.04700000 151.04700000 176.16300000
O 148.95300000 148.95300000 176.16300000
O 148.95300000 151.04700000 174.07200000
Ni 148.95300000 148.95300000 178.25700000
Ni 151.04700000 151.04700000 178.25700000
O 151.04700000 148.95300000 178.25700000
O 148.95300000 151.04700000 178.25700000
Ni 148.95300000 155.23200000 121.74300000
Ni 151.04700000 153.14100000 121.74300000
O 151.04700000 155.23200000 121.74300000
O 148.95300000 153.14100000 121.74300000
Ni 148.95300000 153.14100000 123.83700000
Ni 148.95300000 155.23200000 125.92800000
Ni 151.04700000 153.14100000 125.92800000
Ni 151.04700000 155.23200000 123.83700000
O 151.04700000 153.14100000 123.83700000
O 151.04700000 155.23200000 125.92800000
O 148.95300000 153.14100000 125.92800000
O 148.95300000 155.23200000 123.83700000
Ni 148.95300000 153.14100000 128.02200000
Ni 148.95300000 155.23200000 130.11600000
Ni 151.04700000 153.14100000 130.11600000
Ni 151.04700000 155.23200000 128.02200000
O 151.04700000 153.14100000 128.02200000
O 151.04700000 155.23200000 130.11600000
O 148.95300000 153.14100000 130.11600000
O 148.95300000 155.23200000 128.02200000
Ni 148.95300000 153.14100000 132.20700000
Ni 148.95300000 155.23200000 134.30100000
Ni 151.04700000 153.14100000 134.30100000
Ni 151.04700000 155.23200000 132.20700000
O 151.04700000 153.14100000 132.20700000
O 151.04700000 155.23200000 134.30100000
O 148.95300000 153.14100000 134.30100000
O 148.95300000 155.23200000 132.20700000
Ni 148.95300000 153.14100000 136.39500000
Ni 148.95300000 155.23200000 138.48900000
Ni 151.04700000 153.14100000 138.48900000
Ni 151.04700000 155.23200000 136.39500000
O 151.04700000 153.14100000 136.39500000
O 151.04700000 155.23200000 138.48900000
O 148.95300000 153.14100000 138.48900000
O 148.95300000 155.23200000 136.39500000
Ni 148.95300000 153.14100000 140.58000000
Ni 148.95300000 155.23200000 142.67400000
Ni 151.04700000 153.14100000 142.67400000
Ni 151.04700000 155.23200000 140.58000000
O 151.04700000 153.14100000 140.58000000
O 151.04700000 155.23200000 142.67400000
O 148.95300000 153.14100000 142.67400000
O 148.95300000 155.23200000 140.58000000
Ni 148.95300000 153.14100000 144.76800000
Ni 148.95300000 155.23200000 146.85900000
Ni 151.04700000 153.14100000 146.85900000
Ni 151.04700000 155.23200000 144.76800000
O 151.04700000 153.14100000 144.76800000
O 151.04700000 155.23200000 146.85900000
O 148.95300000 153.14100000 146.85900000
O 148.95300000 155.23200000 144.76800000
Ni 148.95300000 153.14100000 148.95300000
Ni 148.95300000 155.23200000 151.04700000
Ni 151.04700000 153.14100000 151.04700000
Ni 151.04700000 155.23200000 148.95300000
O 151.04700000 153.14100000 148.95300000
O 151.04700000 155.23200000 151.04700000
O 148.95300000 153.14100000 151.04700000
O 148.95300000 155.23200000 148.95300000
Ni 148.95300000 153.14100000 153.14100000
Ni 148.95300000 155.23200000 155.23200000
Ni 151.04700000 153.14100000 155.23200000
Ni 151.04700000 155.23200000 153.14100000
O 151.04700000 153.14100000 153.14100000
O 151.04700000 155.23200000 155.23200000
O 148.95300000 153.14100000 155.23200000
O 148.95300000 155.23200000 153.14100000
Ni 148.95300000 153.14100000 157.32600000
Ni 148.95300000 155.23200000 159.42000000
Ni 151.04700000 153.14100000 159.42000000
Ni 151.04700000 155.23200000 157.32600000
O 151.04700000 153.14100000 157.32600000
O 151.04700000 155.23200000 159.42000000
O 148.95300000 153.14100000 159.42000000
O 148.95300000 155.23200000 157.32600000
Ni 148.95300000 153.14100000 161.51100000
Ni 148.95300000 155.23200000 163.60500000
Ni 151.04700000 153.14100000 163.60500000
Ni 151.04700000 155.23200000 161.51100000
O 151.04700000 153.14100000 161.51100000
O 151.04700000 155.23200000 163.60500000
O 148.95300000 153.14100000 163.60500000
O 148.95300000 155.23200000 161.51100000
Ni 148.95300000 153.14100000 165.69900000
Ni 148.95300000 155.23200000 167.79300000
Ni 151.04700000 153.14100000 167.79300000
Ni 151.04700000 155.23200000 165.69900000
O 151.04700000 153.14100000 165.69900000
O 151.04700000 155.23200000 167.79300000
O 148.95300000 153.14100000 167.79300000
O 148.95300000 155.23200000 165.69900000
Ni 148.95300000 153.14100000 169.88400000
Ni 148.95300000 155.23200000 171.97800000
Ni 151.04700000 153.14100000 171.97800000
Ni 151.04700000 155.23200000 169.88400000
O 151.04700000 153.14100000 169.88400000
O 151.04700000 155.23200000 171.97800000
O 148.95300000 153.14100000 171.97800000
O 148.95300000 155.23200000 169.88400000
Ni 148.95300000 153.14100000 174.07200000
Ni 148.95300000 155.23200000 176.16300000
Ni 151.04700000 153.14100000 176.16300000
Ni 151.04700000 155.23200000 174.07200000
O 151.04700000 153.14100000 174.07200000
O 151.04700000 155.23200000 176.16300000
O 148.95300000 153.14100000 176.16300000
O 148.95300000 155.23200000 174.07200000
Ni 148.95300000 153.14100000 178.25700000
Ni 151.04700000 155.23200000 178.25700000
O 151.04700000 153.14100000 178.25700000
O 148.95300000 155.23200000 178.25700000
Ni 148.95300000 159.42000000 121.74300000
Ni 151.04700000 157.32600000 121.74300000
O 151.04700000 159.42000000 121.74300000
O 148.95300000 157.32600000 121.74300000
Ni 148.95300000 157.32600000 123.83700000
Ni 148.95300000 159.42000000 125.92800000
Ni 151.04700000 157.32600000 125.92800000
Ni 151.04700000 159.42000000 123.83700000
O 151.04700000 157.32600000 123.83700000
O 151.04700000 159.42000000 125.92800000
O 148.95300000 157.32600000 125.92800000
O 148.95300000 159.42000000 123.83700000
Ni 148.95300000 157.32600000 128.02200000
Ni 148.95300000 159.42000000 130.11600000
Ni 151.04700000 157.32600000 130.11600000
Ni 151.04700000 159.42000000 128.02200000
O 151.04700000 157.32600000 128.02200000
O 151.04700000 159.42000000 130.11600000
O 148.95300000 157.32600000 130.11600000
O 148.95300000 159.42000000 128.02200000
Ni 148.95300000 157.32600000 132.20700000
Ni 148.95300000 159.42000000 134.30100000
Ni 151.04700000 157.32600000 134.30100000
Ni 151.04700000 159.42000000 132.20700000
O 151.04700000 157.32600000 132.20700000
O 151.04700000 159.42000000 134.30100000
O 148.95300000 157.32600000 134.30100000
O 148.95300000 159.42000000 132.20700000
Ni 148.95300000 157.32600000 136.39500000
Ni 148.95300000 159.42000000 138.48900000
Ni 151.04700000 157.32600000 138.48900000
Ni 151.04700000 159.42000000 136.39500000
O 151.04700000 157.32600000 136.39500000
O 151.04700000 159.42000000 138.48900000
O 148.95300000 157.32600000 138.48900000
O 148.95300000 159.42000000 136.39500000
Ni 148.95300000 157.32600000 140.58000000
Ni 148.95300000 159.42000000 142.67400000
Ni 151.04700000 157.32600000 142.67400000
Ni 151.04700000 159.42000000 140.58000000
O 151.04700000 157.32600000 140.58000000
O 151.04700000 159.42000000 142.67400000
O 148.95300000 157.32600000 142.67400000
O 148.95300000 159.42000000 140.58000000
Ni 148.95300000 157.32600000 144.76800000
Ni 148.95300000 159.42000000 146.85900000
Ni 151.04700000 157.32600000 146.85900000
Ni 151.04700000 159.42000000 144.76800000
O 151.04700000 157.32600000 144.76800000
O 151.04700000 159.42000000 146.85900000
O 148.95300000 157.32600000 146.85900000
O 148.95300000 159.42000000 144.76800000
Ni 148.95300000 157.32600000 148.95300000
Ni 148.95300000 159.42000000 151.04700000
Ni 151.04700000 157.32600000 151.04700000
Ni 151.04700000 159.42000000 148.95300000
O 151.04700000 157.32600000 148.95300000
O 151.04700000 159.42000000 151.04700000
O 148.95300000 157.32600000 151.04700000
O 148.95300000 159.42000000 148.95300000
Ni 148.95300000 157.32600000 153.14100000
Ni 148.95300000 159.42000000 155.23200000
Ni 151.04700000 157.32600000 155.23200000
Ni 151.04700000 159.42000000 153.14100000
O 151.04700000 157.32600000 153.14100000
O 151.04700000 159.42000000 155.23200000
O 148.95300000 157.32600000 155.23200000
O 148.95300000 159.42000000 153.14100000
Ni 148.95300000 157.32600000 157.32600000
Ni 148.95300000 159.42000000 159.42000000
Ni 151.04700000 157.32600000 159.42000000
Ni 151.04700000 159.42000000 157.32600000
O 151.04700000 157.32600000 157.32600000
O 151.04700000 159.42000000 159.42000000
O 148.95300000 157.32600000 159.42000000
O 148.95300000 159.42000000 157.32600000
Ni 148.95300000 157.32600000 161.51100000
Ni 148.95300000 159.42000000 163.60500000
Ni 151.04700000 157.32600000 163.60500000
Ni 151.04700000 159.42000000 161.51100000
O 151.04700000 157.32600000 161.51100000
O 151.04700000 159.42000000 163.60500000
O 148.95300000 157.32600000 163.60500000
O 148.95300000 159.42000000 161.51100000
Ni 148.95300000 157.32600000 165.69900000
Ni 148.95300000 159.42000000 167.79300000
Ni 151.04700000 157.32600000 167.79300000
Ni 151.04700000 159.42000000 165.69900000
O 151.04700000 157.32600000 165.69900000
O 151.04700000 159.42000000 167.79300000
O 148.95300000 157.32600000 167.79300000
O 148.95300000 159.42000000 165.69900000
Ni 148.95300000 157.32600000 169.88400000
Ni 148.95300000 159.42000000 171.97800000
Ni 151.04700000 157.32600000 171.97800000
Ni 151.04700000 159.42000000 169.88400000
O 151.04700000 157.32600000 169.88400000
O 151.04700000 159.42000000 171.97800000
O 148.95300000 157.32600000 171.97800000
O 148.95300000 159.42000000 169.88400000
Ni 148.95300000 157.32600000 174.07200000
Ni 148.95300000 159.42000000 176.16300000
Ni 151.04700000 157.32600000 176.16300000
Ni 151.04700000 159.42000000 174.07200000
O 151.04700000 157.32600000 174.07200000
O 151.04700000 159.42000000 176.16300000
O 148.95300000 157.32600000 176.16300000
O 148.95300000 159.42000000 174.07200000
Ni 148.95300000 157.32600000 178.25700000
Ni 151.04700000 159.42000000 178.25700000
O 151.04700000 157.32600000 178.25700000
O 148.95300000 159.42000000 178.25700000
Ni 148.95300000 161.51100000 123.83700000
Ni 148.95300000 163.60500000 125.92800000
Ni 151.04700000 161.51100000 125.92800000
Ni 151.04700000 163.60500000 123.83700000
O 151.04700000 161.51100000 123.83700000
O 151.04700000 163.60500000 125.92800000
O 148.95300000 161.51100000 125.92800000
O 148.95300000 163.60500000 123.83700000
Ni 148.95300000 161.51100000 128.02200000
Ni 148.95300000 163.60500000 130.11600000
Ni 151.04700000 161.51100000 130.11600000
Ni 151.04700000 163.60500000 128.02200000
O 151.04700000 161.51100000 128.02200000
O 151.04700000 163.60500000 130.11600000
O 148.95300000 161.51100000 130.11600000
O 148.95300000 163.60500000 128.02200000
Ni 148.95300000 161.51100000 132.20700000
Ni 148.95300000 163.60500000 134.30100000
Ni 151.04700000 161.51100000 134.30100000
Ni 151.04700000 163.60500000 132.20700000
O 151.04700000 161.51100000 132.20700000
O 151.04700000 163.60500000 134.30100000
O 148.95300000 161.51100000 134.30100000
O 148.95300000 163.60500000 132.20700000
Ni 148.95300000 161.51100000 136.39500000
Ni 148.95300000 163.60500000 138.48900000
Ni 151.04700000 161.51100000 138.48900000
Ni 151.04700000 163.60500000 136.39500000
O 151.04700000 161.51100000 136.39500000
O 151.04700000 163.60500000 138.48900000
O 148.95300000 161.51100000 138.48900000
O 148.95300000 163.60500000 136.39500000
Ni 148.95300000 161.51100000 140.58000000
Ni 148.95300000 163.60500000 142.67400000
Ni 151.04700000 161.51100000 142.67400000
Ni 151.04700000 163.60500000 140.58000000
O 151.04700000 161.51100000 140.58000000
O 151.04700000 163.60500000 142.67400000
O 148.95300000 161.51100000 142.67400000
O 148.95300000 163.60500000 140.58000000
Ni 148.95300000 161.51100000 144.76800000
Ni 148.95300000 163.60500000 146.85900000
Ni 151.04700000 161.51100000 146.85900000
Ni 151.04700000 163.60500000 144.76800000
O 151.04700000 161.51100000 144.76800000
O 151.04700000 163.60500000 146.85900000
O 148.95300000 161.51100000 146.85900000
O 148.95300000 163.60500000 144.76800000
Ni 148.95300000 161.51100000 148.95300000
Ni 148.95300000 163.60500000 151.04700000
Ni 151.04700000 161.51100000 151.04700000
Ni 151.04700000 163.60500000 148.95300000
O 151.04700000 161.51100000 148.95300000
O 151.04700000 163.60500000 151.04700000
O 148.95300000 161.51100000 151.04700000
O 148.95300000 163.60500000 148.95300000
Ni 148.95300000 161.51100000 153.14100000
Ni 148.95300000 163.60500000 155.23200000
Ni 151.04700000 161.51100000 155.23200000
Ni 151.04700000 163.60500000 153.14100000
O 151.04700000 161.51100000 153.14100000
O 151.04700000 163.60500000 155.23200000
O 148.95300000 161.51100000 155.23200000
O 148.95300000 163.60500000 153.14100000
Ni 148.95300000 161.51100000 157.32600000
Ni 148.95300000 163.60500000 159.42000000
Ni 151.04700000 161.51100000 159.42000000
Ni 151.04700000 163.60500000 157.32600000
O 151.04700000 161.51100000 157.32600000
O 151.04700000 163.60500000 159.42000000
O 148.95300000 161.51100000 159.42000000
O 148.95300000 163.60500000 157.32600000
Ni 148.95300000 161.51100000 161.51100000
Ni 148.95300000 163.60500000 163.60500000
Ni 151.04700000 161.51100000 163.60500000
Ni 151.04700000 163.60500000 161.51100000
O 151.04700000 161.51100000 161.51100000
O 151.04700000 163.60500000 163.60500000
O 148.95300000 161.51100000 163.60500000
O 148.95300000 163.60500000 161.51100000
Ni 148.95300000 161.51100000 165.69900000
Ni 148.95300000 163.60500000 167.79300000
Ni 151.04700000 161.51100000 167.79300000
Ni 151.04700000 163.60500000 165.69900000
O 151.04700000 161.51100000 165.69900000
O 151.04700000 163.60500000 167.79300000
O 148.95300000 161.51100000 167.79300000
O 148.95300000 163.60500000 165.69900000
Ni 148.95300000 161.51100000 169.88400000
Ni 148.95300000 163.60500000 171.97800000
Ni 151.04700000 161.51100000 171.97800000
Ni 151.04700000 163.60500000 169.88400000
O 151.04700000 161.51100000 169.88400000
O 151.04700000 163.60500000 171.97800000
O 148.95300000 161.51100000 171.97800000
O 148.95300000 163.60500000 169.88400000
Ni 148.95300000 161.51100000 174.07200000
Ni 148.95300000 163.60500000 176.16300000
Ni 151.04700000 161.51100000 176.16300000
Ni 151.04700000 163.60500000 174.07200000
O 151.04700000 161.51100000 174.07200000
O 151.04700000 163.60500000 176.16300000
O 148.95300000 161.51100000 176.16300000
O 148.95300000 163.60500000 174.07200000
Ni 148.95300000 167.79300000 125.92800000
Ni 151.04700000 165.69900000 125.92800000
O 151.04700000 167.79300000 125.92800000
O 148.95300000 165.69900000 125.92800000
Ni 148.95300000 165.69900000 128.02200000
Ni 148.95300000 167.79300000 130.11600000
Ni 151.04700000 165.69900000 130.11600000
Ni 151.04700000 167.79300000 128.02200000
O 151.04700000 165.69900000 128.02200000
O 151.04700000 167.79300000 130.11600000
O 148.95300000 165.69900000 130.11600000
O 148.95300000 167.79300000 128.02200000
Ni 148.95300000 165.69900000 132.20700000
Ni 148.95300000 167.79300000 134.30100000
Ni 151.04700000 165.69900000 134.30100000
Ni 151.04700000 167.79300000 132.20700000
O 151.04700000 165.69900000 132.20700000
O 151.04700000 167.79300000 134.30100000
O 148.95300000 165.69900000 134.30100000
O 148.95300000 167.79300000 132.20700000
Ni 148.95300000 165.69900000 136.39500000
Ni 148.95300000 167.79300000 138.48900000
Ni 151.04700000 165.69900000 138.48900000
Ni 151.04700000 167.79300000 136.39500000
O 151.04700000 165.69900000 136.39500000
O 151.04700000 167.79300000 138.48900000
O 148.95300000 165.69900000 138.48900000
O 148.95300000 167.79300000 136.39500000
Ni 148.95300000 165.69900000 140.58000000
Ni 148.95300000 167.79300000 142.67400000
Ni 151.04700000 165.69900000 142.67400000
Ni 151.04700000 167.79300000 140.58000000
O 151.04700000 165.69900000 140.58000000
O 151.04700000 167.79300000 142.67400000
O 148.95300000 165.69900000 142.67400000
O 148.95300000 167.79300000 140.58000000
Ni 148.95300000 165.69900000 144.76800000
Ni 148.95300000 167.79300000 146.85900000
Ni 151.04700000 165.69900000 146.85900000
Ni 151.04700000 167.79300000 144.76800000
O 151.04700000 165.69900000 144.76800000
O 151.04700000 167.79300000 146.85900000
O 148.95300000 165.69900000 146.85900000
O 148.95300000 167.79300000 144.76800000
Ni 148.95300000 165.69900000 148.95300000
Ni 148.95300000 167.79300000 151.04700000
Ni 151.04700000 165.69900000 151.04700000
Ni 151.04700000 167.79300000 148.95300000
O 151.04700000 165.69900000 148.95300000
O 151.04700000 167.79300000 151.04700000
O 148.95300000 165.69900000 151.04700000
O 148.95300000 167.79300000 148.95300000
Ni 148.95300000 165.69900000 153.14100000
Ni 148.95300000 167.79300000 155.23200000
Ni 151.04700000 165.69900000 155.23200000
Ni 151.04700000 167.79300000 153.14100000
O 151.04700000 165.69900000 153.14100000
O 151.04700000 167.79300000 155.23200000
O 148.95300000 165.69900000 155.23200000
O 148.95300000 167.79300000 153.14100000
Ni 148.95300000 165.69900000 157.32600000
Ni 148.95300000 167.79300000 159.42000000
Ni 151.04700000 165.69900000 159.42000000
Ni 151.04700000 167.79300000 157.32600000
O 151.04700000 165.69900000 157.32600000
O 151.04700000 167.79300000 159.42000000
O 148.95300000 165.69900000 159.42000000
O 148.95300000 167.79300000 157.32600000
Ni 148.95300000 165.69900000 161.51100000
Ni 148.95300000 167.79300000 163.60500000
Ni 151.04700000 165.69900000 163.60500000
Ni 151.04700000 167.79300000 161.51100000
O 151.04700000 165.69900000 161.51100000
O 151.04700000 167.79300000 163.60500000
O 148.95300000 165.69900000 163.60500000
O 148.95300000 167.79300000 161.51100000
Ni 148.95300000 165.69900000 165.69900000
Ni 148.95300000 167.79300000 167.79300000
Ni 151.04700000 165.69900000 167.79300000
Ni 151.04700000 167.79300000 165.69900000
O 151.04700000 165.69900000 165.69900000
O 151.04700000 167.79300000 167.79300000
O 148.95300000 165.69900000 167.79300000
O 148.95300000 167.79300000 165.69900000
Ni 148.95300000 165.69900000 169.88400000
Ni 148.95300000 167.79300000 171.97800000
Ni 151.04700000 165.69900000 171.97800000
Ni 151.04700000 167.79300000 169.88400000
O 151.04700000 165.69900000 169.88400000
O 151.04700000 167.79300000 171.97800000
O 148.95300000 165.69900000 171.97800000
O 148.95300000 167.79300000 169.88400000
Ni 148.95300000 165.69900000 174.07200000
Ni 151.04700000 167.79300000 174.07200000
O 151.04700000 165.69900000 174.07200000
O 148.95300000 167.79300000 174.07200000
Ni 148.95300000 169.88400000 128.02200000
Ni 148.95300000 171.97800000 130.11600000
Ni 151.04700000 169.88400000 130.11600000
O 151.04700000 169.88400000 128.02200000
O 151.04700000 171.97800000 130.11600000
O 148.95300000 169.88400000 130.11600000
Ni 148.95300000 169.88400000 132.20700000
Ni 148.95300000 171.97800000 134.30100000
Ni 151.04700000 169.88400000 134.30100000
Ni 151.04700000 171.97800000 132.20700000
O 151.04700000 169.88400000 132.20700000
O 151.04700000 171.97800000 134.30100000
O 148.95300000 169.88400000 134.30100000
O 148.95300000 171.97800000 132.20700000
Ni 148.95300000 169.88400000 136.39500000
Ni 148.95300000 171.97800000 138.48900000
Ni 151.04700000 169.88400000 138.48900000
Ni 151.04700000 171.97800000 136.39500000
O 151.04700000 169.88400000 136.39500000
O 151.04700000 171.97800000 138.48900000
O 148.95300000 169.88400000 138.48900000
O 148.95300000 171.97800000 136.39500000
Ni 148.95300000 169.88400000 140.58000000
Ni 148.95300000 171.97800000 142.67400000
Ni 151.04700000 169.88400000 142.67400000
Ni 151.04700000 171.97800000 140.58000000
O 151.04700000 169.88400000 140.58000000
O 151.04700000 171.97800000 142.67400000
O 148.95300000 169.88400000 142.67400000
O 148.95300000 171.97800000 140.58000000
Ni 148.95300000 169.88400000 144.76800000
Ni 148.95300000 171.97800000 146.85900000
Ni 151.04700000 169.88400000 146.85900000
Ni 151.04700000 171.97800000 144.76800000
O 151.04700000 169.88400000 144.76800000
O 151.04700000 171.97800000 146.85900000
O 148.95300000 169.88400000 146.85900000
O 148.95300000 171.97800000 144.76800000
Ni 148.95300000 169.88400000 148.95300000
Ni 148.95300000 171.97800000 151.04700000
Ni 151.04700000 169.88400000 151.04700000
Ni 151.04700000 171.97800000 148.95300000
O 151.04700000 169.88400000 148.95300000
O 151.04700000 171.97800000 151.04700000
O 148.95300000 169.88400000 151.04700000
O 148.95300000 171.97800000 148.95300000
Ni 148.95300000 169.88400000 153.14100000
Ni 148.95300000 171.97800000 155.23200000
Ni 151.04700000 169.88400000 155.23200000
Ni 151.04700000 171.97800000 153.14100000
O 151.04700000 169.88400000 153.14100000
O 151.04700000 171.97800000 155.23200000
O 148.95300000 169.88400000 155.23200000
O 148.95300000 171.97800000 153.14100000
Ni 148.95300000 169.88400000 157.32600000
Ni 148.95300000 171.97800000 159.42000000
Ni 151.04700000 169.88400000 159.42000000
Ni 151.04700000 171.97800000 157.32600000
O 151.04700000 169.88400000 157.32600000
O 151.04700000 171.97800000 159.42000000
O 148.95300000 169.88400000 159.42000000
O 148.95300000 171.97800000 157.32600000
Ni 148.95300000 169.88400000 161.51100000
Ni 148.95300000 171.97800000 163.60500000
Ni 151.04700000 169.88400000 163.60500000
Ni 151.04700000 171.97800000 161.51100000
O 151.04700000 169.88400000 161.51100000
O 151.04700000 171.97800000 163.60500000
O 148.95300000 169.88400000 163.60500000
O 148.95300000 171.97800000 161.51100000
Ni 148.95300000 169.88400000 165.69900000
Ni 148.95300000 171.97800000 167.79300000
Ni 151.04700000 169.88400000 167.79300000
Ni 151.04700000 171.97800000 165.69900000
O 151.04700000 169.88400000 165.69900000
O 151.04700000 171.97800000 167.79300000
O 148.95300000 169.88400000 167.79300000
O 148.95300000 171.97800000 165.69900000
Ni 148.95300000 169.88400000 169.88400000
Ni 151.04700000 169.88400000 171.97800000
Ni 151.04700000 171.97800000 169.88400000
O 151.04700000 169.88400000 169.88400000
O 148.95300000 169.88400000 171.97800000
O 148.95300000 171.97800000 169.88400000
Ni 148.95300000 174.07200000 132.20700000
Ni 151.04700000 174.07200000 134.30100000
O 151.04700000 174.07200000 132.20700000
O 148.95300000 174.07200000 134.30100000
Ni 148.95300000 174.07200000 136.39500000
Ni 148.95300000 176.16300000 138.48900000
Ni 151.04700000 174.07200000 138.48900000
Ni 151.04700000 176.16300000 136.39500000
O 151.04700000 174.07200000 136.39500000
O 151.04700000 176.16300000 138.48900000
O 148.95300000 174.07200000 138.48900000
O 148.95300000 176.16300000 136.39500000
Ni 148.95300000 174.07200000 140.58000000
Ni 148.95300000 176.16300000 142.67400000
Ni 151.04700000 174.07200000 142.67400000
Ni 151.04700000 176.16300000 140.58000000
O 151.04700000 174.07200000 140.58000000
O 151.04700000 176.16300000 142.67400000
O 148.95300000 174.07200000 142.67400000
O 148.95300000 176.16300000 140.58000000
Ni 148.95300000 174.07200000 144.76800000
Ni 148.95300000 176.16300000 146.85900000
Ni 151.04700000 174.07200000 146.85900000
Ni 151.04700000 176.16300000 144.76800000
O 151.04700000 174.07200000 144.76800000
O 151.04700000 176.16300000 146.85900000
O 148.95300000 174.07200000 146.85900000
O 148.95300000 176.16300000 144.76800000
Ni 148.95300000 174.07200000 148.95300000
Ni 148.95300000 176.16300000 151.04700000
Ni 151.04700000 174.07200000 151.04700000
Ni 151.04700000 176.16300000 148.95300000
O 151.04700000 174.07200000 148.95300000
O 151.04700000 176.16300000 151.04700000
O 148.95300000 174.07200000 151.04700000
O 148.95300000 176.16300000 148.95300000
Ni 148.95300000 174.07200000 153.14100000
Ni 148.95300000 176.16300000 155.23200000
Ni 151.04700000 174.07200000 155.23200000
Ni 151.04700000 176.16300000 153.14100000
O 151.04700000 174.07200000 153.14100000
O 151.04700000 176.16300000 155.23200000
O 148.95300000 174.07200000 155.23200000
O 148.95300000 176.16300000 153.14100000
Ni 148.95300000 174.07200000 157.32600000
Ni 148.95300000 176.16300000 159.42000000
Ni 151.04700000 174.07200000 159.42000000
Ni 151.04700000 176.16300000 157.32600000
O 151.04700000 174.07200000 157.32600000
O 151.04700000 176.16300000 159.42000000
O 148.95300000 174.07200000 159.42000000
O 148.95300000 176.16300000 157.32600000
Ni 148.95300000 174.07200000 161.51100000
Ni 148.95300000 176.16300000 163.60500000
Ni 151.04700000 174.07200000 163.60500000
Ni 151.04700000 176.16300000 161.51100000
O 151.04700000 174.07200000 161.51100000
O 151.04700000 176.16300000 163.60500000
O 148.95300000 174.07200000 163.60500000
O 148.95300000 176.16300000 161.51100000
Ni 148.95300000 174.07200000 165.69900000
Ni 151.04700000 174.07200000 167.79300000
O 151.04700000 174.07200000 165.69900000
O 148.95300000 174.07200000 167.79300000
Ni 148.95300000 178.25700000 140.58000000
Ni 151.04700000 178.25700000 142.67400000
O 151.04700000 178.25700000 140.58000000
O 148.95300000 178.25700000 142.67400000
Ni 148.95300000 178.25700000 144.76800000
Ni 151.04700000 178.25700000 146.85900000
O 151.04700000 178.25700000 144.76800000
O 148.95300000 178.25700000 146.85900000
Ni 148.95300000 178.25700000 148.95300000
Ni 151.04700000 178.25700000 151.04700000
O 151.04700000 178.25700000 148.95300000
O 148.95300000 178.25700000 151.04700000
Ni 148.95300000 178.25700000 153.14100000
Ni 151.04700000 178.25700000 155.23200000
O 151.04700000 178.25700000 153.14100000
O 148.95300000 178.25700000 155.23200000
Ni 148.95300000 178.25700000 157.32600000
Ni 151.04700000 178.25700000 159.42000000
O 151.04700000 178.25700000 157.32600000
O 148.95300000 178.25700000 159.42000000
Ni 153.14100000 121.74300000 142.67400000
O 155.23200000 121.74300000 142.67400000
O 153.14100000 121.74300000 140.58000000
Ni 153.14100000 121.74300000 146.85900000
Ni 155.23200000 121.74300000 144.76800000
O 155.23200000 121.74300000 146.85900000
O 153.14100000 121.74300000 144.76800000
Ni 153.14100000 121.74300000 151.04700000
Ni 155.23200000 121.74300000 148.95300000
O 155.23200000 121.74300000 151.04700000
O 153.14100000 121.74300000 148.95300000
Ni 153.14100000 121.74300000 155.23200000
Ni 155.23200000 121.74300000 153.14100000
O 155.23200000 121.74300000 155.23200000
O 153.14100000 121.74300000 153.14100000
Ni 153.14100000 121.74300000 159.42000000
Ni 155.23200000 121.74300000 157.32600000
O 153.14100000 121.74300000 157.32600000
Ni 153.14100000 125.92800000 134.30100000
O 155.23200000 125.92800000 134.30100000
Ni 153.14100000 123.83700000 136.39500000
Ni 153.14100000 125.92800000 138.48900000
Ni 155.23200000 123.83700000 138.48900000
Ni 155.23200000 125.92800000 136.39500000
O 155.23200000 123.83700000 136.39500000
O 155.23200000 125.92800000 138.48900000
O 153.14100000 123.83700000 138.48900000
O 153.14100000 125.92800000 136.39500000
Ni 153.14100000 123.83700000 140.58000000
Ni 153.14100000 125.92800000 142.67400000
Ni 155.23200000 123.83700000 142.67400000
Ni 155.23200000 125.92800000 140.58000000
O 155.23200000 123.83700000 140.58000000
O 155.23200000 125.92800000 142.67400000
O 153.14100000 123.83700000 142.67400000
O 153.14100000 125.92800000 140.58000000
Ni 153.14100000 123.83700000 144.76800000
Ni 153.14100000 125.92800000 146.85900000
Ni 155.23200000 123.83700000 146.85900000
Ni 155.23200000 125.92800000 144.76800000
O 155.23200000 123.83700000 144.76800000
O 155.23200000 125.92800000 146.85900000
O 153.14100000 123.83700000 146.85900000
O 153.14100000 125.92800000 144.76800000
Ni 153.14100000 123.83700000 148.95300000
Ni 153.14100000 125.92800000 151.04700000
Ni 155.23200000 123.83700000 151.04700000
Ni 155.23200000 125.92800000 148.95300000
O 155.23200000 123.83700000 148.95300000
O 155.23200000 125.92800000 151.04700000
O 153.14100000 123.83700000 151.04700000
O 153.14100000 125.92800000 148.95300000
Ni 153.14100000 123.83700000 153.14100000
Ni 153.14100000 125.92800000 155.23200000
Ni 155.23200000 123.83700000 155.23200000
Ni 155.23200000 125.92800000 153.14100000
O 155.23200000 123.83700000 153.14100000
O 155.23200000 125.92800000 155.23200000
O 153.14100000 123.83700000 155.23200000
O 153.14100000 125.92800000 153.14100000
Ni 153.14100000 123.83700000 157.32600000
Ni 153.14100000 125.92800000 159.42000000
Ni 155.23200000 123.83700000 159.42000000
Ni 155.23200000 125.92800000 157.32600000
O 155.23200000 123.83700000 157.32600000
O 155.23200000 125.92800000 159.42000000
O 153.14100000 123.83700000 159.42000000
O 153.14100000 125.92800000 157.32600000
Ni 153.14100000 123.83700000 161.51100000
Ni 153.14100000 125.92800000 163.60500000
Ni 155.23200000 123.83700000 163.60500000
Ni 155.23200000 125.92800000 161.51100000
O 155.23200000 123.83700000 161.51100000
O 155.23200000 125.92800000 163.60500000
O 153.14100000 123.83700000 163.60500000
O 153.14100000 125.92800000 161.51100000
Ni 155.23200000 125.92800000 165.69900000
O 153.14100000 125.92800000 165.69900000
Ni 153.14100000 130.11600000 130.11600000
O 155.23200000 130.11600000 130.11600000
O 153.14100000 128.02200000 130.11600000
O 153.14100000 130.11600000 128.02200000
Ni 153.14100000 128.02200000 132.20700000
Ni 153.14100000 130.11600000 134.30100000
Ni 155.23200000 128.02200000 134.30100000
Ni 155.23200000 130.11600000 132.20700000
O 155.23200000 128.02200000 132.20700000
O 155.23200000 130.11600000 134.30100000
O 153.14100000 128.02200000 134.30100000
O 153.14100000 130.11600000 132.20700000
Ni 153.14100000 128.02200000 136.39500000
Ni 153.14100000 130.11600000 138.48900000
Ni 155.23200000 128.02200000 138.48900000
Ni 155.23200000 130.11600000 136.39500000
O 155.23200000 128.02200000 136.39500000
O 155.23200000 130.11600000 138.48900000
O 153.14100000 128.02200000 138.48900000
O 153.14100000 130.11600000 136.39500000
Ni 153.14100000 128.02200000 140.58000000
Ni 153.14100000 130.11600000 142.67400000
Ni 155.23200000 128.02200000 142.67400000
Ni 155.23200000 130.11600000 140.58000000
O 155.23200000 128.02200000 140.58000000
O 155.23200000 130.11600000 142.67400000
O 153.14100000 128.02200000 142.67400000
O 153.14100000 130.11600000 140.58000000
Ni 153.14100000 128.02200000 144.76800000
Ni 153.14100000 130.11600000 146.85900000
Ni 155.23200000 128.02200000 146.85900000
Ni 155.23200000 130.11600000 144.76800000
O 155.23200000 128.02200000 144.76800000
O 155.23200000 130.11600000 146.85900000
O 153.14100000 128.02200000 146.85900000
O 153.14100000 130.11600000 144.76800000
Ni 153.14100000 128.02200000 148.95300000
Ni 153.14100000 130.11600000 151.04700000
Ni 155.23200000 128.02200000 151.04700000
Ni 155.23200000 130.11600000 148.95300000
O 155.23200000 128.02200000 148.95300000
O 155.23200000 130.11600000 151.04700000
O 153.14100000 128.02200000 151.04700000
O 153.14100000 130.11600000 148.95300000
Ni 153.14100000 128.02200000 153.14100000
Ni 153.14100000 130.11600000 155.23200000
Ni 155.23200000 128.02200000 155.23200000
Ni 155.23200000 130.11600000 153.14100000
O 155.23200000 128.02200000 153.14100000
O 155.23200000 130.11600000 155.23200000
O 153.14100000 128.02200000 155.23200000
O 153.14100000 130.11600000 153.14100000
Ni 153.14100000 128.02200000 157.32600000
Ni 153.14100000 130.11600000 159.42000000
Ni 155.23200000 128.02200000 159.42000000
Ni 155.23200000 130.11600000 157.32600000
O 155.23200000 128.02200000 157.32600000
O 155.23200000 130.11600000 159.42000000
O 153.14100000 128.02200000 159.42000000
O 153.14100000 130.11600000 157.32600000
Ni 153.14100000 128.02200000 161.51100000
Ni 153.14100000 130.11600000 163.60500000
Ni 155.23200000 128.02200000 163.60500000
Ni 155.23200000 130.11600000 161.51100000
O 155.23200000 128.02200000 161.51100000
O 155.23200000 130.11600000 163.60500000
O 153.14100000 128.02200000 163.60500000
O 153.14100000 130.11600000 161.51100000
Ni 153.14100000 128.02200000 165.69900000
Ni 153.14100000 130.11600000 167.79300000
Ni 155.23200000 128.02200000 167.79300000
Ni 155.23200000 130.11600000 165.69900000
O 155.23200000 128.02200000 165.69900000
O 155.23200000 130.11600000 167.79300000
O 153.14100000 128.02200000 167.79300000
O 153.14100000 130.11600000 165.69900000
Ni 153.14100000 128.02200000 169.88400000
Ni 153.14100000 130.11600000 171.97800000
Ni 155.23200000 130.11600000 169.88400000
O 153.14100000 130.11600000 169.88400000
Ni 153.14100000 134.30100000 125.92800000
O 155.23200000 134.30100000 125.92800000
Ni 153.14100000 132.20700000 128.02200000
Ni 153.14100000 134.30100000 130.11600000
Ni 155.23200000 132.20700000 130.11600000
Ni 155.23200000 134.30100000 128.02200000
O 155.23200000 132.20700000 128.02200000
O 155.23200000 134.30100000 130.11600000
O 153.14100000 132.20700000 130.11600000
O 153.14100000 134.30100000 128.02200000
Ni 153.14100000 132.20700000 132.20700000
Ni 153.14100000 134.30100000 134.30100000
Ni 155.23200000 132.20700000 134.30100000
Ni 155.23200000 134.30100000 132.20700000
O 155.23200000 132.20700000 132.20700000
O 155.23200000 134.30100000 134.30100000
O 153.14100000 132.20700000 134.30100000
O 153.14100000 134.30100000 132.20700000
Ni 153.14100000 132.20700000 136.39500000
Ni 153.14100000 134.30100000 138.48900000
Ni 155.23200000 132.20700000 138.48900000
Ni 155.23200000 134.30100000 136.39500000
O 155.23200000 132.20700000 136.39500000
O 155.23200000 134.30100000 138.48900000
O 153.14100000 132.20700000 138.48900000
O 153.14100000 134.30100000 136.39500000
Ni 153.14100000 132.20700000 140.58000000
Ni 153.14100000 134.30100000 142.67400000
Ni 155.23200000 132.20700000 142.67400000
Ni 155.23200000 134.30100000 140.58000000
O 155.23200000 132.20700000 140.58000000
O 155.23200000 134.30100000 142.67400000
O 153.14100000 132.20700000 142.67400000
O 153.14100000 134.30100000 140.58000000
Ni 153.14100000 132.20700000 144.76800000
Ni 153.14100000 134.30100000 146.85900000
Ni 155.23200000 132.20700000 146.85900000
Ni 155.23200000 134.30100000 144.76800000
O 155.23200000 132.20700000 144.76800000
O 155.23200000 134.30100000 146.85900000
O 153.14100000 132.20700000 146.85900000
O 153.14100000 134.30100000 144.76800000
Ni 153.14100000 132.20700000 148.95300000
Ni 153.14100000 134.30100000 151.04700000
Ni 155.23200000 132.20700000 151.04700000
Ni 155.23200000 134.30100000 148.95300000
O 155.23200000 132.20700000 148.95300000
O 155.23200000 134.30100000 151.04700000
O 153.14100000 132.20700000 151.04700000
O 153.14100000 134.30100000 148.95300000
Ni 153.14100000 132.20700000 153.14100000
Ni 153.14100000 134.30100000 155.23200000
Ni 155.23200000 132.20700000 155.23200000
Ni 155.23200000 134.30100000 153.14100000
O 155.23200000 132.20700000 153.14100000
O 155.23200000 134.30100000 155.23200000
O 153.14100000 132.20700000 155.23200000
O 153.14100000 134.30100000 153.14100000
Ni 153.14100000 132.20700000 157.32600000
Ni 153.14100000 134.30100000 159.42000000
Ni 155.23200000 132.20700000 159.42000000
Ni 155.23200000 134.30100000 157.32600000
O 155.23200000 132.20700000 157.32600000
O 155.23200000 134.30100000 159.42000000
O 153.14100000 132.20700000 159.42000000
O 153.14100000 134.30100000 157.32600000
Ni 153.14100000 132.20700000 161.51100000
Ni 153.14100000 134.30100000 163.60500000
Ni 155.23200000 132.20700000 163.60500000
Ni 155.23200000 134.30100000 161.51100000
O 155.23200000 132.20700000 161.51100000
O 155.23200000 134.30100000 163.60500000
O 153.14100000 132.20700000 163.60500000
O 153.14100000 134.30100000 161.51100000
Ni 153.14100000 132.20700000 165.69900000
Ni 153.14100000 134.30100000 167.79300000
Ni 155.23200000 132.20700000 167.79300000
Ni 155.23200000 134.30100000 165.69900000
O 155.23200000 132.20700000 165.69900000
O 155.23200000 134.30100000 167.79300000
O 153.14100000 132.20700000 167.79300000
O 153.14100000 134.30100000 165.69900000
Ni 153.14100000 132.20700000 169.88400000
Ni 153.14100000 134.30100000 171.97800000
Ni 155.23200000 132.20700000 171.97800000
Ni 155.23200000 134.30100000 169.88400000
O 155.23200000 132.20700000 169.88400000
O 155.23200000 134.30100000 171.97800000
O 153.14100000 132.20700000 171.97800000
O 153.14100000 134.30100000 169.88400000
Ni 155.23200000 134.30100000 174.07200000
O 153.14100000 134.30100000 174.07200000
Ni 153.14100000 136.39500000 123.83700000
Ni 153.14100000 138.48900000 125.92800000
Ni 155.23200000 136.39500000 125.92800000
Ni 155.23200000 138.48900000 123.83700000
O 155.23200000 136.39500000 123.83700000
O 155.23200000 138.48900000 125.92800000
O 153.14100000 136.39500000 125.92800000
O 153.14100000 138.48900000 123.83700000
Ni 153.14100000 136.39500000 128.02200000
Ni 153.14100000 138.48900000 130.11600000
Ni 155.23200000 136.39500000 130.11600000
Ni 155.23200000 138.48900000 128.02200000
O 155.23200000 136.39500000 128.02200000
O 155.23200000 138.48900000 130.11600000
O 153.14100000 136.39500000 130.11600000
O 153.14100000 138.48900000 128.02200000
Ni 153.14100000 136.39500000 132.20700000
Ni 153.14100000 138.48900000 134.30100000
Ni 155.23200000 136.39500000 134.30100000
Ni 155.23200000 138.48900000 132.20700000
O 155.23200000 136.39500000 132.20700000
O 155.23200000 138.48900000 134.30100000
O 153.14100000 136.39500000 134.30100000
O 153.14100000 138.48900000 132.20700000
Ni 153.14100000 136.39500000 136.39500000
Ni 153.14100000 138.48900000 138.48900000
Ni 155.23200000 136.39500000 138.48900000
Ni 155.23200000 138.48900000 136.39500000
O 155.23200000 136.39500000 136.39500000
O 155.23200000 138.48900000 138.48900000
O 153.14100000 136.39500000 138.48900000
O 153.14100000 138.48900000 136.39500000
Ni 153.14100000 136.39500000 140.58000000
Ni 153.14100000 138.48900000 142.67400000
Ni 155.23200000 136.39500000 142.67400000
Ni 155.23200000 138.48900000 140.58000000
O 155.23200000 136.39500000 140.58000000
O 155.23200000 138.48900000 142.67400000
O 153.14100000 136.39500000 142.67400000
O 153.14100000 138.48900000 140.58000000
Ni 153.14100000 136.39500000 144.76800000
Ni 153.14100000 138.48900000 146.85900000
Ni 155.23200000 136.39500000 146.85900000
Ni 155.23200000 138.48900000 144.76800000
O 155.23200000 136.39500000 144.76800000
O 155.23200000 138.48900000 146.85900000
O 153.14100000 136.39500000 146.85900000
O 153.14100000 138.48900000 144.76800000
Ni 153.14100000 136.39500000 148.95300000
Ni 153.14100000 138.48900000 151.04700000
Ni 155.23200000 136.39500000 151.04700000
Ni 155.23200000 138.48900000 148.95300000
O 155.23200000 136.39500000 148.95300000
O 155.23200000 138.48900000 151.04700000
O 153.14100000 136.39500000 151.04700000
O 153.14100000 138.48900000 148.95300000
Ni 153.14100000 136.39500000 153.14100000
Ni 153.14100000 138.48900000 155.23200000
Ni 155.23200000 136.39500000 155.23200000
Ni 155.23200000 138.48900000 153.14100000
O 155.23200000 136.39500000 153.14100000
O 155.23200000 138.48900000 155.23200000
O 153.14100000 136.39500000 155.23200000
O 153.14100000 138.48900000 153.14100000
Ni 153.14100000 136.39500000 157.32600000
Ni 153.14100000 138.48900000 159.42000000
Ni 155.23200000 136.39500000 159.42000000
Ni 155.23200000 138.48900000 157.32600000
O 155.23200000 136.39500000 157.32600000
O 155.23200000 138.48900000 159.42000000
O 153.14100000 136.39500000 159.42000000
O 153.14100000 138.48900000 157.32600000
Ni 153.14100000 136.39500000 161.51100000
Ni 153.14100000 138.48900000 163.60500000
Ni 155.23200000 136.39500000 163.60500000
Ni 155.23200000 138.48900000 161.51100000
O 155.23200000 136.39500000 161.51100000
O 155.23200000 138.48900000 163.60500000
O 153.14100000 136.39500000 163.60500000
O 153.14100000 138.48900000 161.51100000
Ni 153.14100000 136.39500000 165.69900000
Ni 153.14100000 138.48900000 167.79300000
Ni 155.23200000 136.39500000 167.79300000
Ni 155.23200000 138.48900000 165.69900000
O 155.23200000 136.39500000 165.69900000
O 155.23200000 138.48900000 167.79300000
O 153.14100000 136.39500000 167.79300000
O 153.14100000 138.48900000 165.69900000
Ni 153.14100000 136.39500000 169.88400000
Ni 153.14100000 138.48900000 171.97800000
Ni 155.23200000 136.39500000 171.97800000
Ni 155.23200000 138.48900000 169.88400000
O 155.23200000 136.39500000 169.88400000
O 155.23200000 138.48900000 171.97800000
O 153.14100000 136.39500000 171.97800000
O 153.14100000 138.48900000 169.88400000
Ni 153.14100000 136.39500000 174.07200000
Ni 153.14100000 138.48900000 176.16300000
Ni 155.23200000 136.39500000 176.16300000
Ni 155.23200000 138.48900000 174.07200000
O 155.23200000 136.39500000 174.07200000
O 155.23200000 138.48900000 176.16300000
O 153.14100000 136.39500000 176.16300000
O 153.14100000 138.48900000 174.07200000
Ni 153.14100000 142.67400000 121.74300000
O 155.23200000 142.67400000 121.74300000
O 153.14100000 140.58000000 121.74300000
Ni 153.14100000 140.58000000 123.83700000
Ni 153.14100000 142.67400000 125.92800000
Ni 155.23200000 140.58000000 125.92800000
Ni 155.23200000 142.67400000 123.83700000
O 155.23200000 140.58000000 123.83700000
O 155.23200000 142.67400000 125.92800000
O 153.14100000 140.58000000 125.92800000
O 153.14100000 142.67400000 123.83700000
Ni 153.14100000 140.58000000 128.02200000
Ni 153.14100000 142.67400000 130.11600000
Ni 155.23200000 140.58000000 130.11600000
Ni 155.23200000 142.67400000 128.02200000
O 155.23200000 140.58000000 128.02200000
O 155.23200000 142.67400000 130.11600000
O 153.14100000 140.58000000 130.11600000
O 153.14100000 142.67400000 128.02200000
Ni 153.14100000 140.58000000 132.20700000
Ni 153.14100000 142.67400000 134.30100000
Ni 155.23200000 140.58000000 134.30100000
Ni 155.23200000 142.67400000 132.20700000
O 155.23200000 140.58000000 132.20700000
O 155.23200000 142.67400000 134.30100000
O 153.14100000 140.58000000 134.30100000
O 153.14100000 142.67400000 132.20700000
Ni 153.14100000 140.58000000 136.39500000
Ni 153.14100000 142.67400000 138.48900000
Ni 155.23200000 140.58000000 138.48900000
Ni 155.23200000 142.67400000 136.39500000
O 155.23200000 140.58000000 136.39500000
O 155.23200000 142.67400000 138.48900000
O 153.14100000 140.58000000 138.48900000
O 153.14100000 142.67400000 136.39500000
Ni 153.14100000 140.58000000 140.58000000
Ni 153.14100000 142.67400000 142.67400000
Ni 155.23200000 140.58000000 142.67400000
Ni 155.23200000 142.67400000 140.58000000
O 155.23200000 140.58000000 140.58000000
O 155.23200000 142.67400000 142.67400000
O 153.14100000 140.58000000 142.67400000
O 153.14100000 142.67400000 140.58000000
Ni 153.14100000 140.58000000 144.76800000
Ni 153.14100000 142.67400000 146.85900000
Ni 155.23200000 140.58000000 146.85900000
Ni 155.23200000 142.67400000 144.76800000
O 155.23200000 140.58000000 144.76800000
O 155.23200000 142.67400000 146.85900000
O 153.14100000 140.58000000 146.85900000
O 153.14100000 142.67400000 144.76800000
Ni 153.14100000 140.58000000 148.95300000
Ni 153.14100000 142.67400000 151.04700000
Ni 155.23200000 140.58000000 151.04700000
Ni 155.23200000 142.67400000 148.95300000
O 155.23200000 140.58000000 148.95300000
O 155.23200000 142.67400000 151.04700000
O 153.14100000 140.58000000 151.04700000
O 153.14100000 142.67400000 148.95300000
Ni 153.14100000 140.58000000 153.14100000
Ni 153.14100000 142.67400000 155.23200000
Ni 155.23200000 140.58000000 155.23200000
Ni 155.23200000 142.67400000 153.14100000
O 155.23200000 140.58000000 153.14100000
O 155.23200000 142.67400000 155.23200000
O 153.14100000 140.58000000 155.23200000
O 153.14100000 142.67400000 153.14100000
Ni 153.14100000 140.58000000 157.32600000
Ni 153.14100000 142.67400000 159.42000000
Ni 155.23200000 140.58000000 159.42000000
Ni 155.23200000 142.67400000 157.32600000
O 155.23200000 140.58000000 157.32600000
O 155.23200000 142.67400000 159.42000000
O 153.14100000 140.58000000 159.42000000
O 153.14100000 142.67400000 157.32600000
Ni 153.14100000 140.58000000 161.51100000
Ni 153.14100000 142.67400000 163.60500000
Ni 155.23200000 140.58000000 163.60500000
Ni 155.23200000 142.67400000 161.51100000
O 155.23200000 140.58000000 161.51100000
O 155.23200000 142.67400000 163.60500000
O 153.14100000 140.58000000 163.60500000
O 153.14100000 142.67400000 161.51100000
Ni 153.14100000 140.58000000 165.69900000
Ni 153.14100000 142.67400000 167.79300000
Ni 155.23200000 140.58000000 167.79300000
Ni 155.23200000 142.67400000 165.69900000
O 155.23200000 140.58000000 165.69900000
O 155.23200000 142.67400000 167.79300000
O 153.14100000 140.58000000 167.79300000
O 153.14100000 142.67400000 165.69900000
Ni 153.14100000 140.58000000 169.88400000
Ni 153.14100000 142.67400000 171.97800000
Ni 155.23200000 140.58000000 171.97800000
Ni 155.23200000 142.67400000 169.88400000
O 155.23200000 140.58000000 169.88400000
O 155.23200000 142.67400000 171.97800000
O 153.14100000 140.58000000 171.97800000
O 153.14100000 142.67400000 169.88400000
Ni 153.14100000 140.58000000 174.07200000
Ni 153.14100000 142.67400000 176.16300000
Ni 155.23200000 140.58000000 176.16300000
Ni 155.23200000 142.67400000 174.07200000
O 155.23200000 140.58000000 174.07200000
O 155.23200000 142.67400000 176.16300000
O 153.14100000 140.58000000 176.16300000
O 153.14100000 142.67400000 174.07200000
Ni 153.14100000 140.58000000 178.25700000
Ni 155.23200000 142.67400000 178.25700000
O 153.14100000 142.67400000 178.25700000
Ni 153.14100000 146.85900000 121.74300000
Ni 155.23200000 144.76800000 121.74300000
O 155.23200000 146.85900000 121.74300000
O 153.14100000 144.76800000 121.74300000
Ni 153.14100000 144.76800000 123.83700000
Ni 153.14100000 146.85900000 125.92800000
Ni 155.23200000 144.76800000 125.92800000
Ni 155.23200000 146.85900000 123.83700000
O 155.23200000 144.76800000 123.83700000
O 155.23200000 146.85900000 125.92800000
O 153.14100000 144.76800000 125.92800000
O 153.14100000 146.85900000 123.83700000
Ni 153.14100000 144.76800000 128.02200000
Ni 153.14100000 146.85900000 130.11600000
Ni 155.23200000 144.76800000 130.11600000
Ni 155.23200000 146.85900000 128.02200000
O 155.23200000 144.76800000 128.02200000
O 155.23200000 146.85900000 130.11600000
O 153.14100000 144.76800000 130.11600000
O 153.14100000 146.85900000 128.02200000
Ni 153.14100000 144.76800000 132.20700000
Ni 153.14100000 146.85900000 134.30100000
Ni 155.23200000 144.76800000 134.30100000
Ni 155.23200000 146.85900000 132.20700000
O 155.23200000 144.76800000 132.20700000
O 155.23200000 146.85900000 134.30100000
O 153.14100000 144.76800000 134.30100000
O 153.14100000 146.85900000 132.20700000
Ni 153.14100000 144.76800000 136.39500000
Ni 153.14100000 146.85900000 138.48900000
Ni 155.23200000 144.76800000 138.48900000
Ni 155.23200000 146.85900000 136.39500000
O 155.23200000 144.76800000 136.39500000
O 155.23200000 146.85900000 138.48900000
O 153.14100000 144.76800000 138.48900000
O 153.14100000 146.85900000 136.39500000
Ni 153.14100000 144.76800000 140.58000000
Ni 153.14100000 146.85900000 142.67400000
Ni 155.23200000 144.76800000 142.67400000
Ni 155.23200000 146.85900000 140.58000000
O 155.23200000 144.76800000 140.58000000
O 155.23200000 146.85900000 142.67400000
O 153.14100000 144.76800000 142.67400000
O 153.14100000 146.85900000 140.58000000
Ni 153.14100000 144.76800000 144.76800000
Ni 153.14100000 146.85900000 146.85900000
Ni 155.23200000 144.76800000 146.85900000
Ni 155.23200000 146.85900000 144.76800000
O 155.23200000 144.76800000 144.76800000
O 155.23200000 146.85900000 146.85900000
O 153.14100000 144.76800000 146.85900000
O 153.14100000 146.85900000 144.76800000
Ni 153.14100000 144.76800000 148.95300000
Ni 153.14100000 146.85900000 151.04700000
Ni 155.23200000 144.76800000 151.04700000
Ni 155.23200000 146.85900000 148.95300000
O 155.23200000 144.76800000 148.95300000
O 155.23200000 146.85900000 151.04700000
O 153.14100000 144.76800000 151.04700000
O 153.14100000 146.85900000 148.95300000
Ni 153.14100000 144.76800000 153.14100000
Ni 153.14100000 146.85900000 155.23200000
Ni 155.23200000 144.76800000 155.23200000
Ni 155.23200000 146.85900000 153.14100000
O 155.23200000 144.76800000 153.14100000
O 155.23200000 146.85900000 155.23200000
O 153.14100000 144.76800000 155.23200000
O 153.14100000 146.85900000 153.14100000
Ni 153.14100000 144.76800000 157.32600000
Ni 153.14100000 146.85900000 159.42000000
Ni 155.23200000 144.76800000 159.42000000
Ni 155.23200000 146.85900000 157.32600000
O 155.23200000 144.76800000 157.32600000
O 155.23200000 146.85900000 159.42000000
O 153.14100000 144.76800000 159.42000000
O 153.14100000 146.85900000 157.32600000
Ni 153.14100000 144.76800000 161.51100000
Ni 153.14100000 146.85900000 163.60500000
Ni 155.23200000 144.76800000 163.60500000
Ni 155.23200000 146.85900000 161.51100000
O 155.23200000 144.76800000 161.51100000
O 155.23200000 146.85900000 163.60500000
O 153.14100000 144.76800000 163.60500000
O 153.14100000 146.85900000 161.51100000
Ni 153.14100000 144.76800000 165.69900000
Ni 153.14100000 146.85900000 167.79300000
Ni 155.23200000 144.76800000 167.79300000
Ni 155.23200000 146.85900000 165.69900000
O 155.23200000 144.76800000 165.69900000
O 155.23200000 146.85900000 167.79300000
O 153.14100000 144.76800000 167.79300000
O 153.14100000 146.85900000 165.69900000
Ni 153.14100000 144.76800000 169.88400000
Ni 153.14100000 146.85900000 171.97800000
Ni 155.23200000 144.76800000 171.97800000
Ni 155.23200000 146.85900000 169.88400000
O 155.23200000 144.76800000 169.88400000
O 155.23200000 146.85900000 171.97800000
O 153.14100000 144.76800000 171.97800000
O 153.14100000 146.85900000 169.88400000
Ni 153.14100000 144.76800000 174.07200000
Ni 153.14100000 146.85900000 176.16300000
Ni 155.23200000 144.76800000 176.16300000
Ni 155.23200000 146.85900000 174.07200000
O 155.23200000 144.76800000 174.07200000
O 155.23200000 146.85900000 176.16300000
O 153.14100000 144.76800000 176.16300000
O 153.14100000 146.85900000 174.07200000
Ni 153.14100000 144.76800000 178.25700000
Ni 155.23200000 146.85900000 178.25700000
O 155.23200000 144.76800000 178.25700000
O 153.14100000 146.85900000 178.25700000
Ni 153.14100000 151.04700000 121.74300000
Ni 155.23200000 148.95300000 121.74300000
O 155.23200000 151.04700000 121.74300000
O 153.14100000 148.95300000 121.74300000
Ni 153.14100000 148.95300000 123.83700000
Ni 153.14100000 151.04700000 125.92800000
Ni 155.23200000 148.95300000 125.92800000
Ni 155.23200000 151.04700000 123.83700000
O 155.23200000 148.95300000 123.83700000
O 155.23200000 151.04700000 125.92800000
O 153.14100000 148.95300000 125.92800000
O 153.14100000 151.04700000 123.83700000
Ni 153.14100000 148.95300000 128.02200000
Ni 153.14100000 151.04700000 130.11600000
Ni 155.23200000 148.95300000 130.11600000
Ni 155.23200000 151.04700000 128.02200000
O 155.23200000 148.95300000 128.02200000
O 155.23200000 151.04700000 130.11600000
O 153.14100000 148.95300000 130.11600000
O 153.14100000 151.04700000 128.02200000
Ni 153.14100000 148.95300000 132.20700000
Ni 153.14100000 151.04700000 134.30100000
Ni 155.23200000 148.95300000 134.30100000
Ni 155.23200000 151.04700000 132.20700000
O 155.23200000 148.95300000 132.20700000
O 155.23200000 151.04700000 134.30100000
O 153.14100000 148.95300000 134.30100000
O 153.14100000 151.04700000 132.20700000
Ni 153.14100000 148.95300000 136.39500000
Ni 153.14100000 151.04700000 138.48900000
Ni 155.23200000 148.95300000 138.48900000
Ni 155.23200000 151.04700000 136.39500000
O 155.23200000 148.95300000 136.39500000
O 155.23200000 151.04700000 138.48900000
O 153.14100000 148.95300000 138.48900000
O 153.14100000 151.04700000 136.39500000
Ni 153.14100000 148.95300000 140.58000000
Ni 153.14100000 151.04700000 142.67400000
Ni 155.23200000 148.95300000 142.67400000
Ni 155.23200000 151.04700000 140.58000000
O 155.23200000 148.95300000 140.58000000
O 155.23200000 151.04700000 142.67400000
O 153.14100000 148.95300000 142.67400000
O 153.14100000 151.04700000 140.58000000
Ni 153.14100000 148.95300000 144.76800000
Ni 153.14100000 151.04700000 146.85900000
Ni 155.23200000 148.95300000 146.85900000
Ni 155.23200000 151.04700000 144.76800000
O 155.23200000 148.95300000 144.76800000
O 155.23200000 151.04700000 146.85900000
O 153.14100000 148.95300000 146.85900000
O 153.14100000 151.04700000 144.76800000
Ni 153.14100000 148.95300000 148.95300000
Ni 153.14100000 151.04700000 151.04700000
Ni 155.23200000 148.95300000 151.04700000
Ni 155.23200000 151.04700000 148.95300000
O 155.23200000 148.95300000 148.95300000
O 155.23200000 151.04700000 151.04700000
O 153.14100000 148.95300000 151.04700000
O 153.14100000 151.04700000 148.95300000
Ni 153.14100000 148.95300000 153.14100000
Ni 153.14100000 151.04700000 155.23200000
Ni 155.23200000 148.95300000 155.23200000
Ni 155.23200000 151.04700000 153.14100000
O 155.23200000 148.95300000 153.14100000
O 155.23200000 151.04700000 155.23200000
O 153.14100000 148.95300000 155.23200000
O 153.14100000 151.04700000 153.14100000
Ni 153.14100000 148.95300000 157.32600000
Ni 153.14100000 151.04700000 159.42000000
Ni 155.23200000 148.95300000 159.42000000
Ni 155.23200000 151.04700000 157.32600000
O 155.23200000 148.95300000 157.32600000
O 155.23200000 151.04700000 159.42000000
O 153.14100000 148.95300000 159.42000000
O 153.14100000 151.04700000 157.32600000
Ni 153.14100000 148.95300000 161.51100000
Ni 153.14100000 151.04700000 163.60500000
Ni 155.23200000 148.95300000 163.60500000
Ni 155.23200000 151.04700000 161.51100000
O 155.23200000 148.95300000 161.51100000
O 155.23200000 151.04700000 163.60500000
O 153.14100000 148.95300000 163.60500000
O 153.14100000 151.04700000 161.51100000
Ni 153.14100000 148.95300000 165.69900000
Ni 153.14100000 151.04700000 167.79300000
Ni 155.23200000 148.95300000 167.79300000
Ni 155.23200000 151.04700000 165.69900000
O 155.23200000 148.95300000 165.69900000
O 155.23200000 151.04700000 167.79300000
O 153.14100000 148.95300000 167.79300000
O 153.14100000 151.04700000 165.69900000
Ni 153.14100000 148.95300000 169.88400000
Ni 153.14100000 151.04700000 171.97800000
Ni 155.23200000 148.95300000 171.97800000
Ni 155.23200000 151.04700000 169.88400000
O 155.23200000 148.95300000 169.88400000
O 155.23200000 151.04700000 171.97800000
O 153.14100000 148.95300000 171.97800000
O 153.14100000 151.04700000 169.88400000
Ni 153.14100000 148.95300000 174.07200000
Ni 153.14100000 151.04700000 176.16300000
Ni 155.23200000 148.95300000 176.16300000
Ni 155.23200000 151.04700000 174.07200000
O 155.23200000 148.95300000 174.07200000
O 155.23200000 151.04700000 176.16300000
O 153.14100000 148.95300000 176.16300000
O 153.14100000 151.04700000 174.07200000
Ni 153.14100000 148.95300000 178.25700000
Ni 155.23200000 151.04700000 178.25700000
O 155.23200000 148.95300000 178.25700000
O 153.14100000 151.04700000 178.25700000
Ni 153.14100000 155.23200000 121.74300000
Ni 155.23200000 153.14100000 121.74300000
O 155.23200000 155.23200000 121.74300000
O 153.14100000 153.14100000 121.74300000
Ni 153.14100000 153.14100000 123.83700000
Ni 153.14100000 155.23200000 125.92800000
Ni 155.23200000 153.14100000 125.92800000
Ni 155.23200000 155.23200000 123.83700000
O 155.23200000 153.14100000 123.83700000
O 155.23200000 155.23200000 125.92800000
O 153.14100000 153.14100000 125.92800000
O 153.14100000 155.23200000 123.83700000
Ni 153.14100000 153.14100000 128.02200000
Ni 153.14100000 155.23200000 130.11600000
Ni 155.23200000 153.14100000 130.11600000
Ni 155.23200000 155.23200000 128.02200000
O 155.23200000 153.14100000 128.02200000
O 155.23200000 155.23200000 130.11600000
O 153.14100000 153.14100000 130.11600000
O 153.14100000 155.23200000 128.02200000
Ni 153.14100000 153.14100000 132.20700000
Ni 153.14100000 155.23200000 134.30100000
Ni 155.23200000 153.14100000 134.30100000
Ni 155.23200000 155.23200000 132.20700000
O 155.23200000 153.14100000 132.20700000
O 155.23200000 155.23200000 134.30100000
O 153.14100000 153.14100000 134.30100000
O 153.14100000 155.23200000 132.20700000
Ni 153.14100000 153.14100000 136.39500000
Ni 153.14100000 155.23200000 138.48900000
Ni 155.23200000 153.14100000 138.48900000
Ni 155.23200000 155.23200000 136.39500000
O 155.23200000 153.14100000 136.39500000
O 155.23200000 155.23200000 138.48900000
O 153.14100000 153.14100000 138.48900000
O 153.14100000 155.23200000 136.39500000
Ni 153.14100000 153.14100000 140.58000000
Ni 153.14100000 155.23200000 142.67400000
Ni 155.23200000 153.14100000 142.67400000
Ni 155.23200000 155.23200000 140.58000000
O 155.23200000 153.14100000 140.58000000
O 155.23200000 155.23200000 142.67400000
O 153.14100000 153.14100000 142.67400000
O 153.14100000 155.23200000 140.58000000
Ni 153.14100000 153.14100000 144.76800000
Ni 153.14100000 155.23200000 146.85900000
Ni 155.23200000 153.14100000 146.85900000
Ni 155.23200000 155.23200000 144.76800000
O 155.23200000 153.14100000 144.76800000
O 155.23200000 155.23200000 146.85900000
O 153.14100000 153.14100000 146.85900000
O 153.14100000 155.23200000 144.76800000
Ni 153.14100000 153.14100000 148.95300000
Ni 153.14100000 155.23200000 151.04700000
Ni 155.23200000 153.14100000 151.04700000
Ni 155.23200000 155.23200000 148.95300000
O 155.23200000 153.14100000 148.95300000
O 155.23200000 155.23200000 151.04700000
O 153.14100000 153.14100000 151.04700000
O 153.14100000 155.23200000 148.95300000
Ni 153.14100000 153.14100000 153.14100000
Ni 153.14100000 155.23200000 155.23200000
Ni 155.23200000 153.14100000 155.23200000
Ni 155.23200000 155.23200000 153.14100000
O 155.23200000 153.14100000 153.14100000
O 155.23200000 155.23200000 155.23200000
O 153.14100000 153.14100000 155.23200000
O 153.14100000 155.23200000 153.14100000
Ni 153.14100000 153.14100000 157.32600000
Ni 153.14100000 155.23200000 159.42000000
Ni 155.23200000 153.14100000 159.42000000
Ni 155.23200000 155.23200000 157.32600000
O 155.23200000 153.14100000 157.32600000
O 155.23200000 155.23200000 159.42000000
O 153.14100000 153.14100000 159.42000000
O 153.14100000 155.23200000 157.32600000
Ni 153.14100000 153.14100000 161.51100000
Ni 153.14100000 155.23200000 163.60500000
Ni 155.23200000 153.14100000 163.60500000
Ni 155.23200000 155.23200000 161.51100000
O 155.23200000 153.14100000 161.51100000
O 155.23200000 155.23200000 163.60500000
O 153.14100000 153.14100000 163.60500000
O 153.14100000 155.23200000 161.51100000
Ni 153.14100000 153.14100000 165.69900000
Ni 153.14100000 155.23200000 167.79300000
Ni 155.23200000 153.14100000 167.79300000
Ni 155.23200000 155.23200000 165.69900000
O 155.23200000 153.14100000 165.69900000
O 155.23200000 155.23200000 167.79300000
O 153.14100000 153.14100000 167.79300000
O 153.14100000 155.23200000 165.69900000
Ni 153.14100000 153.14100000 169.88400000
Ni 153.14100000 155.23200000 171.97800000
Ni 155.23200000 153.14100000 171.97800000
Ni 155.23200000 155.23200000 169.88400000
O 155.23200000 153.14100000 169.88400000
O 155.23200000 155.23200000 171.97800000
O 153.14100000 153.14100000 171.97800000
O 153.14100000 155.23200000 169.88400000
Ni 153.14100000 153.14100000 174.07200000
Ni 153.14100000 155.23200000 176.16300000
Ni 155.23200000 153.14100000 176.16300000
Ni 155.23200000 155.23200000 174.07200000
O 155.23200000 153.14100000 174.07200000
O 155.23200000 155.23200000 176.16300000
O 153.14100000 153.14100000 176.16300000
O 153.14100000 155.23200000 174.07200000
Ni 153.14100000 153.14100000 178.25700000
Ni 155.23200000 155.23200000 178.25700000
O 155.23200000 153.14100000 178.25700000
O 153.14100000 155.23200000 178.25700000
Ni 153.14100000 159.42000000 121.74300000
Ni 155.23200000 157.32600000 121.74300000
O 153.14100000 157.32600000 121.74300000
Ni 153.14100000 157.32600000 123.83700000
Ni 153.14100000 159.42000000 125.92800000
Ni 155.23200000 157.32600000 125.92800000
Ni 155.23200000 159.42000000 123.83700000
O 155.23200000 157.32600000 123.83700000
O 155.23200000 159.42000000 125.92800000
O 153.14100000 157.32600000 125.92800000
O 153.14100000 159.42000000 123.83700000
Ni 153.14100000 157.32600000 128.02200000
Ni 153.14100000 159.42000000 130.11600000
Ni 155.23200000 157.32600000 130.11600000
Ni 155.23200000 159.42000000 128.02200000
O 155.23200000 157.32600000 128.02200000
O 155.23200000 159.42000000 130.11600000
O 153.14100000 157.32600000 130.11600000
O 153.14100000 159.42000000 128.02200000
Ni 153.14100000 157.32600000 132.20700000
Ni 153.14100000 159.42000000 134.30100000
Ni 155.23200000 157.32600000 134.30100000
Ni 155.23200000 159.42000000 132.20700000
O 155.23200000 157.32600000 132.20700000
O 155.23200000 159.42000000 134.30100000
O 153.14100000 157.32600000 134.30100000
O 153.14100000 159.42000000 132.20700000
Ni 153.14100000 157.32600000 136.39500000
Ni 153.14100000 159.42000000 138.48900000
Ni 155.23200000 157.32600000 138.48900000
Ni 155.23200000 159.42000000 136.39500000
O 155.23200000 157.32600000 136.39500000
O 155.23200000 159.42000000 138.48900000
O 153.14100000 157.32600000 138.48900000
O 153.14100000 159.42000000 136.39500000
Ni 153.14100000 157.32600000 140.58000000
Ni 153.14100000 159.42000000 142.67400000
Ni 155.23200000 157.32600000 142.67400000
Ni 155.23200000 159.42000000 140.58000000
O 155.23200000 157.32600000 140.58000000
O 155.23200000 159.42000000 142.67400000
O 153.14100000 157.32600000 142.67400000
O 153.14100000 159.42000000 140.58000000
Ni 153.14100000 157.32600000 144.76800000
Ni 153.14100000 159.42000000 146.85900000
Ni 155.23200000 157.32600000 146.85900000
Ni 155.23200000 159.42000000 144.76800000
O 155.23200000 157.32600000 144.76800000
O 155.23200000 159.42000000 146.85900000
O 153.14100000 157.32600000 146.85900000
O 153.14100000 159.42000000 144.76800000
Ni 153.14100000 157.32600000 148.95300000
Ni 153.14100000 159.42000000 151.04700000
Ni 155.23200000 157.32600000 151.04700000
Ni 155.23200000 159.42000000 148.95300000
O 155.23200000 157.32600000 148.95300000
O 155.23200000 159.42000000 151.04700000
O 153.14100000 157.32600000 151.04700000
O 153.14100000 159.42000000 148.95300000
Ni 153.14100000 157.32600000 153.14100000
Ni 153.14100000 159.42000000 155.23200000
Ni 155.23200000 157.32600000 155.23200000
Ni 155.23200000 159.42000000 153.14100000
O 155.23200000 157.32600000 153.14100000
O 155.23200000 159.42000000 155.23200000
O 153.14100000 157.32600000 155.23200000
O 153.14100000 159.42000000 153.14100000
Ni 153.14100000 157.32600000 157.32600000
Ni 153.14100000 159.42000000 159.42000000
Ni 155.23200000 157.32600000 159.42000000
Ni 155.23200000 159.42000000 157.32600000
O 155.23200000 157.32600000 157.32600000
O 155.23200000 159.42000000 159.42000000
O 153.14100000 157.32600000 159.42000000
O 153.14100000 159.42000000 157.32600000
Ni 153.14100000 157.32600000 161.51100000
Ni 153.14100000 159.42000000 163.60500000
Ni 155.23200000 157.32600000 163.60500000
Ni 155.23200000 159.42000000 161.51100000
O 155.23200000 157.32600000 161.51100000
O 155.23200000 159.42000000 163.60500000
O 153.14100000 157.32600000 163.60500000
O 153.14100000 159.42000000 161.51100000
Ni 153.14100000 157.32600000 165.69900000
Ni 153.14100000 159.42000000 167.79300000
Ni 155.23200000 157.32600000 167.79300000
Ni 155.23200000 159.42000000 165.69900000
O 155.23200000 157.32600000 165.69900000
O 155.23200000 159.42000000 167.79300000
O 153.14100000 157.32600000 167.79300000
O 153.14100000 159.42000000 165.69900000
Ni 153.14100000 157.32600000 169.88400000
Ni 153.14100000 159.42000000 171.97800000
Ni 155.23200000 157.32600000 171.97800000
Ni 155.23200000 159.42000000 169.88400000
O 155.23200000 157.32600000 169.88400000
O 155.23200000 159.42000000 171.97800000
O 153.14100000 157.32600000 171.97800000
O 153.14100000 159.42000000 169.88400000
Ni 153.14100000 157.32600000 174.07200000
Ni 153.14100000 159.42000000 176.16300000
Ni 155.23200000 157.32600000 176.16300000
Ni 155.23200000 159.42000000 174.07200000
O 155.23200000 157.32600000 174.07200000
O 155.23200000 159.42000000 176.16300000
O 153.14100000 157.32600000 176.16300000
O 153.14100000 159.42000000 174.07200000
Ni 153.14100000 157.32600000 178.25700000
O 155.23200000 157.32600000 178.25700000
O 153.14100000 159.42000000 178.25700000
Ni 153.14100000 161.51100000 123.83700000
Ni 153.14100000 163.60500000 125.92800000
Ni 155.23200000 161.51100000 125.92800000
Ni 155.23200000 163.60500000 123.83700000
O 155.23200000 161.51100000 123.83700000
O 155.23200000 163.60500000 125.92800000
O 153.14100000 161.51100000 125.92800000
O 153.14100000 163.60500000 123.83700000
Ni 153.14100000 161.51100000 128.02200000
Ni 153.14100000 163.60500000 130.11600000
Ni 155.23200000 161.51100000 130.11600000
Ni 155.23200000 163.60500000 128.02200000
O 155.23200000 161.51100000 128.02200000
O 155.23200000 163.60500000 130.11600000
O 153.14100000 161.51100000 130.11600000
O 153.14100000 163.60500000 128.02200000
Ni 153.14100000 161.51100000 132.20700000
Ni 153.14100000 163.60500000 134.30100000
Ni 155.23200000 161.51100000 134.30100000
Ni 155.23200000 163.60500000 132.20700000
O 155.23200000 161.51100000 132.20700000
O 155.23200000 163.60500000 134.30100000
O 153.14100000 161.51100000 134.30100000
O 153.14100000 163.60500000 132.20700000
Ni 153.14100000 161.51100000 136.39500000
Ni 153.14100000 163.60500000 138.48900000
Ni 155.23200000 161.51100000 138.48900000
Ni 155.23200000 163.60500000 136.39500000
O 155.23200000 161.51100000 136.39500000
O 155.23200000 163.60500000 138.48900000
O 153.14100000 161.51100000 138.48900000
O 153.14100000 163.60500000 136.39500000
Ni 153.14100000 161.51100000 140.58000000
Ni 153.14100000 163.60500000 142.67400000
Ni 155.23200000 161.51100000 142.67400000
Ni 155.23200000 163.60500000 140.58000000
O 155.23200000 161.51100000 140.58000000
O 155.23200000 163.60500000 142.67400000
O 153.14100000 161.51100000 142.67400000
O 153.14100000 163.60500000 140.58000000
Ni 153.14100000 161.51100000 144.76800000
Ni 153.14100000 163.60500000 146.85900000
Ni 155.23200000 161.51100000 146.85900000
Ni 155.23200000 163.60500000 144.76800000
O 155.23200000 161.51100000 144.76800000
O 155.23200000 163.60500000 146.85900000
O 153.14100000 161.51100000 146.85900000
O 153.14100000 163.60500000 144.76800000
Ni 153.14100000 161.51100000 148.95300000
Ni 153.14100000 163.60500000 151.04700000
Ni 155.23200000 161.51100000 151.04700000
Ni 155.23200000 163.60500000 148.95300000
O 155.23200000 161.51100000 148.95300000
O 155.23200000 163.60500000 151.04700000
O 153.14100000 161.51100000 151.04700000
O 153.14100000 163.60500000 148.95300000
Ni 153.14100000 161.51100000 153.14100000
Ni 153.14100000 163.60500000 155.23200000
Ni 155.23200000 161.51100000 155.23200000
Ni 155.23200000 163.60500000 153.14100000
O 155.23200000 161.51100000 153.14100000
O 155.23200000 163.60500000 155.23200000
O 153.14100000 161.51100000 155.23200000
O 153.14100000 163.60500000 153.14100000
Ni 153.14100000 161.51100000 157.32600000
Ni 153.14100000 163.60500000 159.42000000
Ni 155.23200000 161.51100000 159.42000000
Ni 155.23200000 163.60500000 157.32600000
O 155.23200000 161.51100000 157.32600000
O 155.23200000 163.60500000 159.42000000
O 153.14100000 161.51100000 159.42000000
O 153.14100000 163.60500000 157.32600000
Ni 153.14100000 161.51100000 161.51100000
Ni 153.14100000 163.60500000 163.60500000
Ni 155.23200000 161.51100000 163.60500000
Ni 155.23200000 163.60500000 161.51100000
O 155.23200000 161.51100000 161.51100000
O 155.23200000 163.60500000 163.60500000
O 153.14100000 161.51100000 163.60500000
O 153.14100000 163.60500000 161.51100000
Ni 153.14100000 161.51100000 165.69900000
Ni 153.14100000 163.60500000 167.79300000
Ni 155.23200000 161.51100000 167.79300000
Ni 155.23200000 163.60500000 165.69900000
O 155.23200000 161.51100000 165.69900000
O 155.23200000 163.60500000 167.79300000
O 153.14100000 161.51100000 167.79300000
O 153.14100000 163.60500000 165.69900000
Ni 153.14100000 161.51100000 169.88400000
Ni 153.14100000 163.60500000 171.97800000
Ni 155.23200000 161.51100000 171.97800000
Ni 155.23200000 163.60500000 169.88400000
O 155.23200000 161.51100000 169.88400000
O 155.23200000 163.60500000 171.97800000
O 153.14100000 161.51100000 171.97800000
O 153.14100000 163.60500000 169.88400000
Ni 153.14100000 161.51100000 174.07200000
Ni 153.14100000 163.60500000 176.16300000
Ni 155.23200000 161.51100000 176.16300000
Ni 155.23200000 163.60500000 174.07200000
O 155.23200000 161.51100000 174.07200000
O 155.23200000 163.60500000 176.16300000
O 153.14100000 161.51100000 176.16300000
O 153.14100000 163.60500000 174.07200000
Ni 155.23200000 165.69900000 125.92800000
O 153.14100000 165.69900000 125.92800000
Ni 153.14100000 165.69900000 128.02200000
Ni 153.14100000 167.79300000 130.11600000
Ni 155.23200000 165.69900000 130.11600000
Ni 155.23200000 167.79300000 128.02200000
O 155.23200000 165.69900000 128.02200000
O 155.23200000 167.79300000 130.11600000
O 153.14100000 165.69900000 130.11600000
O 153.14100000 167.79300000 128.02200000
Ni 153.14100000 165.69900000 132.20700000
Ni 153.14100000 167.79300000 134.30100000
Ni 155.23200000 165.69900000 134.30100000
Ni 155.23200000 167.79300000 132.20700000
O 155.23200000 165.69900000 132.20700000
O 155.23200000 167.79300000 134.30100000
O 153.14100000 165.69900000 134.30100000
O 153.14100000 167.79300000 132.20700000
Ni 153.14100000 165.69900000 136.39500000
Ni 153.14100000 167.79300000 138.48900000
Ni 155.23200000 165.69900000 138.48900000
Ni 155.23200000 167.79300000 136.39500000
O 155.23200000 165.69900000 136.39500000
O 155.23200000 167.79300000 138.48900000
O 153.14100000 165.69900000 138.48900000
O 153.14100000 167.79300000 136.39500000
Ni 153.14100000 165.69900000 140.58000000
Ni 153.14100000 167.79300000 142.67400000
Ni 155.23200000 165.69900000 142.67400000
Ni 155.23200000 167.79300000 140.58000000
O 155.23200000 165.69900000 140.58000000
O 155.23200000 167.79300000 142.67400000
O 153.14100000 165.69900000 142.67400000
O 153.14100000 167.79300000 140.58000000
Ni 153.14100000 165.69900000 144.76800000
Ni 153.14100000 167.79300000 146.85900000
Ni 155.23200000 165.69900000 146.85900000
Ni 155.23200000 167.79300000 144.76800000
O 155.23200000 165.69900000 144.76800000
O 155.23200000 167.79300000 146.85900000
O 153.14100000 165.69900000 146.85900000
O 153.14100000 167.79300000 144.76800000
Ni 153.14100000 165.69900000 148.95300000
Ni 153.14100000 167.79300000 151.04700000
Ni 155.23200000 165.69900000 151.04700000
Ni 155.23200000 167.79300000 148.95300000
O 155.23200000 165.69900000 148.95300000
O 155.23200000 167.79300000 151.04700000
O 153.14100000 165.69900000 151.04700000
O 153.14100000 167.79300000 148.95300000
Ni 153.14100000 165.69900000 153.14100000
Ni 153.14100000 167.79300000 155.23200000
Ni 155.23200000 165.69900000 155.23200000
Ni 155.23200000 167.79300000 153.14100000
O 155.23200000 165.69900000 153.14100000
O 155.23200000 167.79300000 155.23200000
O 153.14100000 165.69900000 155.23200000
O 153.14100000 167.79300000 153.14100000
Ni 153.14100000 165.69900000 157.32600000
Ni 153.14100000 167.79300000 159.42000000
Ni 155.23200000 165.69900000 159.42000000
Ni 155.23200000 167.79300000 157.32600000
O 155.23200000 165.69900000 157.32600000
O 155.23200000 167.79300000 159.42000000
O 153.14100000 165.69900000 159.42000000
O 153.14100000 167.79300000 157.32600000
Ni 153.14100000 165.69900000 161.51100000
Ni 153.14100000 167.79300000 163.60500000
Ni 155.23200000 165.69900000 163.60500000
Ni 155.23200000 167.79300000 161.51100000
O 155.23200000 165.69900000 161.51100000
O 155.23200000 167.79300000 163.60500000
O 153.14100000 165.69900000 163.60500000
O 153.14100000 167.79300000 161.51100000
Ni 153.14100000 165.69900000 165.69900000
Ni 153.14100000 167.79300000 167.79300000
Ni 155.23200000 165.69900000 167.79300000
Ni 155.23200000 167.79300000 165.69900000
O 155.23200000 165.69900000 165.69900000
O 155.23200000 167.79300000 167.79300000
O 153.14100000 165.69900000 167.79300000
O 153.14100000 167.79300000 165.69900000
Ni 153.14100000 165.69900000 169.88400000
Ni 153.14100000 167.79300000 171.97800000
Ni 155.23200000 165.69900000 171.97800000
Ni 155.23200000 167.79300000 169.88400000
O 155.23200000 165.69900000 169.88400000
O 155.23200000 167.79300000 171.97800000
O 153.14100000 165.69900000 171.97800000
O 153.14100000 167.79300000 169.88400000
Ni 153.14100000 165.69900000 174.07200000
O 155.23200000 165.69900000 174.07200000
Ni 153.14100000 169.88400000 128.02200000
Ni 153.14100000 171.97800000 130.11600000
Ni 155.23200000 169.88400000 130.11600000
O 153.14100000 169.88400000 130.11600000
Ni 153.14100000 169.88400000 132.20700000
Ni 153.14100000 171.97800000 134.30100000
Ni 155.23200000 169.88400000 134.30100000
Ni 155.23200000 171.97800000 132.20700000
O 155.23200000 169.88400000 132.20700000
O 155.23200000 171.97800000 134.30100000
O 153.14100000 169.88400000 134.30100000
O 153.14100000 171.97800000 132.20700000
Ni 153.14100000 169.88400000 136.39500000
Ni 153.14100000 171.97800000 138.48900000
Ni 155.23200000 169.88400000 138.48900000
Ni 155.23200000 171.97800000 136.39500000
O 155.23200000 169.88400000 136.39500000
O 155.23200000 171.97800000 138.48900000
O 153.14100000 169.88400000 138.48900000
O 153.14100000 171.97800000 136.39500000
Ni 153.14100000 169.88400000 140.58000000
Ni 153.14100000 171.97800000 142.67400000
Ni 155.23200000 169.88400000 142.67400000
Ni 155.23200000 171.97800000 140.58000000
O 155.23200000 169.88400000 140.58000000
O 155.23200000 171.97800000 142.67400000
O 153.14100000 169.88400000 142.67400000
O 153.14100000 171.97800000 140.58000000
Ni 153.14100000 169.88400000 144.76800000
Ni 153.14100000 171.97800000 146.85900000
Ni 155.23200000 169.88400000 146.85900000
Ni 155.23200000 171.97800000 144.76800000
O 155.23200000 169.88400000 144.76800000
O 155.23200000 171.97800000 146.85900000
O 153.14100000 169.88400000 146.85900000
O 153.14100000 171.97800000 144.76800000
Ni 153.14100000 169.88400000 148.95300000
Ni 153.14100000 171.97800000 151.04700000
Ni 155.23200000 169.88400000 151.04700000
Ni 155.23200000 171.97800000 148.95300000
O 155.23200000 169.88400000 148.95300000
O 155.23200000 171.97800000 151.04700000
O 153.14100000 169.88400000 151.04700000
O 153.14100000 171.97800000 148.95300000
Ni 153.14100000 169.88400000 153.14100000
Ni 153.14100000 171.97800000 155.23200000
Ni 155.23200000 169.88400000 155.23200000
Ni 155.23200000 171.97800000 153.14100000
O 155.23200000 169.88400000 153.14100000
O 155.23200000 171.97800000 155.23200000
O 153.14100000 169.88400000 155.23200000
O 153.14100000 171.97800000 153.14100000
Ni 153.14100000 169.88400000 157.32600000
Ni 153.14100000 171.97800000 159.42000000
Ni 155.23200000 169.88400000 159.42000000
Ni 155.23200000 171.97800000 157.32600000
O 155.23200000 169.88400000 157.32600000
O 155.23200000 171.97800000 159.42000000
O 153.14100000 169.88400000 159.42000000
O 153.14100000 171.97800000 157.32600000
Ni 153.14100000 169.88400000 161.51100000
Ni 153.14100000 171.97800000 163.60500000
Ni 155.23200000 169.88400000 163.60500000
Ni 155.23200000 171.97800000 161.51100000
O 155.23200000 169.88400000 161.51100000
O 155.23200000 171.97800000 163.60500000
O 153.14100000 169.88400000 163.60500000
O 153.14100000 171.97800000 161.51100000
Ni 153.14100000 169.88400000 165.69900000
Ni 153.14100000 171.97800000 167.79300000
Ni 155.23200000 169.88400000 167.79300000
Ni 155.23200000 171.97800000 165.69900000
O 155.23200000 169.88400000 165.69900000
O 155.23200000 171.97800000 167.79300000
O 153.14100000 169.88400000 167.79300000
O 153.14100000 171.97800000 165.69900000
Ni 153.14100000 169.88400000 169.88400000
O 155.23200000 169.88400000 169.88400000
O 153.14100000 169.88400000 171.97800000
O 153.14100000 171.97800000 169.88400000
Ni 155.23200000 174.07200000 134.30100000
O 153.14100000 174.07200000 134.30100000
Ni 153.14100000 174.07200000 136.39500000
Ni 153.14100000 176.16300000 138.48900000
Ni 155.23200000 174.07200000 138.48900000
Ni 155.23200000 176.16300000 136.39500000
O 155.23200000 174.07200000 136.39500000
O 155.23200000 176.16300000 138.48900000
O 153.14100000 174.07200000 138.48900000
O 153.14100000 176.16300000 136.39500000
Ni 153.14100000 174.07200000 140.58000000
Ni 153.14100000 176.16300000 142.67400000
Ni 155.23200000 174.07200000 142.67400000
Ni 155.23200000 176.16300000 140.58000000
O 155.23200000 174.07200000 140.58000000
O 155.23200000 176.16300000 142.67400000
O 153.14100000 174.07200000 142.67400000
O 153.14100000 176.16300000 140.58000000
Ni 153.14100000 174.07200000 144.76800000
Ni 153.14100000 176.16300000 146.85900000
Ni 155.23200000 174.07200000 146.85900000
Ni 155.23200000 176.16300000 144.76800000
O 155.23200000 174.07200000 144.76800000
O 155.23200000 176.16300000 146.85900000
O 153.14100000 174.07200000 146.85900000
O 153.14100000 176.16300000 144.76800000
Ni 153.14100000 174.07200000 148.95300000
Ni 153.14100000 176.16300000 151.04700000
Ni 155.23200000 174.07200000 151.04700000
Ni 155.23200000 176.16300000 148.95300000
O 155.23200000 174.07200000 148.95300000
O 155.23200000 176.16300000 151.04700000
O 153.14100000 174.07200000 151.04700000
O 153.14100000 176.16300000 148.95300000
Ni 153.14100000 174.07200000 153.14100000
Ni 153.14100000 176.16300000 155.23200000
Ni 155.23200000 174.07200000 155.23200000
Ni 155.23200000 176.16300000 153.14100000
O 155.23200000 174.07200000 153.14100000
O 155.23200000 176.16300000 155.23200000
O 153.14100000 174.07200000 155.23200000
O 153.14100000 176.16300000 153.14100000
Ni 153.14100000 174.07200000 157.32600000
Ni 153.14100000 176.16300000 159.42000000
Ni 155.23200000 174.07200000 159.42000000
Ni 155.23200000 176.16300000 157.32600000
O 155.23200000 174.07200000 157.32600000
O 155.23200000 176.16300000 159.42000000
O 153.14100000 174.07200000 159.42000000
O 153.14100000 176.16300000 157.32600000
Ni 153.14100000 174.07200000 161.51100000
Ni 153.14100000 176.16300000 163.60500000
Ni 155.23200000 174.07200000 163.60500000
Ni 155.23200000 176.16300000 161.51100000
O 155.23200000 174.07200000 161.51100000
O 155.23200000 176.16300000 163.60500000
O 153.14100000 174.07200000 163.60500000
O 153.14100000 176.16300000 161.51100000
Ni 153.14100000 174.07200000 165.69900000
O 155.23200000 174.07200000 165.69900000
Ni 153.14100000 178.25700000 140.58000000
Ni 155.23200000 178.25700000 142.67400000
O 153.14100000 178.25700000 142.67400000
Ni 153.14100000 178.25700000 144.76800000
Ni 155.23200000 178.25700000 146.85900000
O 155.23200000 178.25700000 144.76800000
O 153.14100000 178.25700000 146.85900000
Ni 153.14100000 178.25700000 148.95300000
Ni 155.23200000 178.25700000 151.04700000
O 155.23200000 178.25700000 148.95300000
O 153.14100000 178.25700000 151.04700000
Ni 153.14100000 178.25700000 153.14100000
Ni 155.23200000 178.25700000 155.23200000
O 155.23200000 178.25700000 153.14100000
O 153.14100000 178.25700000 155.23200000
Ni 153.14100000 178.25700000 157.32600000
O 155.23200000 178.25700000 157.32600000
O 153.14100000 178.25700000 159.42000000
Ni 157.32600000 121.74300000 146.85900000
O 159.42000000 121.74300000 146.85900000
O 157.32600000 121.74300000 144.76800000
Ni 157.32600000 121.74300000 151.04700000
Ni 159.42000000 121.74300000 148.95300000
O 159.42000000 121.74300000 151.04700000
O 157.32600000 121.74300000 148.95300000
Ni 157.32600000 121.74300000 155.23200000
Ni 159.42000000 121.74300000 153.14100000
O 157.32600000 121.74300000 153.14100000
Ni 157.32600000 125.92800000 134.30100000
Ni 157.32600000 125.92800000 138.48900000
Ni 159.42000000 125.92800000 136.39500000
O 159.42000000 125.92800000 138.48900000
O 157.32600000 123.83700000 138.48900000
O 157.32600000 125.92800000 136.39500000
Ni 157.32600000 123.83700000 140.58000000
Ni 157.32600000 125.92800000 142.67400000
Ni 159.42000000 123.83700000 142.67400000
Ni 159.42000000 125.92800000 140.58000000
O 159.42000000 123.83700000 140.58000000
O 159.42000000 125.92800000 142.67400000
O 157.32600000 123.83700000 142.67400000
O 157.32600000 125.92800000 140.58000000
Ni 157.32600000 123.83700000 144.76800000
Ni 157.32600000 125.92800000 146.85900000
Ni 159.42000000 123.83700000 146.85900000
Ni 159.42000000 125.92800000 144.76800000
O 159.42000000 123.83700000 144.76800000
O 159.42000000 125.92800000 146.85900000
O 157.32600000 123.83700000 146.85900000
O 157.32600000 125.92800000 144.76800000
Ni 157.32600000 123.83700000 148.95300000
Ni 157.32600000 125.92800000 151.04700000
Ni 159.42000000 123.83700000 151.04700000
Ni 159.42000000 125.92800000 148.95300000
O 159.42000000 123.83700000 148.95300000
O 159.42000000 125.92800000 151.04700000
O 157.32600000 123.83700000 151.04700000
O 157.32600000 125.92800000 148.95300000
Ni 157.32600000 123.83700000 153.14100000
Ni 157.32600000 125.92800000 155.23200000
Ni 159.42000000 123.83700000 155.23200000
Ni 159.42000000 125.92800000 153.14100000
O 159.42000000 123.83700000 153.14100000
O 159.42000000 125.92800000 155.23200000
O 157.32600000 123.83700000 155.23200000
O 157.32600000 125.92800000 153.14100000
Ni 157.32600000 123.83700000 157.32600000
Ni 157.32600000 125.92800000 159.42000000
Ni 159.42000000 123.83700000 159.42000000
Ni 159.42000000 125.92800000 157.32600000
O 159.42000000 123.83700000 157.32600000
O 159.42000000 125.92800000 159.42000000
O 157.32600000 123.83700000 159.42000000
O 157.32600000 125.92800000 157.32600000
Ni 157.32600000 123.83700000 161.51100000
Ni 157.32600000 125.92800000 163.60500000
Ni 159.42000000 125.92800000 161.51100000
O 159.42000000 125.92800000 163.60500000
O 157.32600000 125.92800000 161.51100000
O 157.32600000 125.92800000 165.69900000
Ni 157.32600000 130.11600000 130.11600000
O 159.42000000 130.11600000 130.11600000
Ni 157.32600000 128.02200000 132.20700000
Ni 157.32600000 130.11600000 134.30100000
Ni 159.42000000 128.02200000 134.30100000
Ni 159.42000000 130.11600000 132.20700000
O 159.42000000 128.02200000 132.20700000
O 159.42000000 130.11600000 134.30100000
O 157.32600000 128.02200000 134.30100000
O 157.32600000 130.11600000 132.20700000
Ni 157.32600000 128.02200000 136.39500000
Ni 157.32600000 130.11600000 138.48900000
Ni 159.42000000 128.02200000 138.48900000
Ni 159.42000000 130.11600000 136.39500000
O 159.42000000 128.02200000 136.39500000
O 159.42000000 130.11600000 138.48900000
O 157.32600000 128.02200000 138.48900000
O 157.32600000 130.11600000 136.39500000
Ni 157.32600000 128.02200000 140.58000000
Ni 157.32600000 130.11600000 142.67400000
Ni 159.42000000 128.02200000 142.67400000
Ni 159.42000000 130.11600000 140.58000000
O 159.42000000 128.02200000 140.58000000
O 159.42000000 130.11600000 142.67400000
O 157.32600000 128.02200000 142.67400000
O 157.32600000 130.11600000 140.58000000
Ni 157.32600000 128.02200000 144.76800000
Ni 157.32600000 130.11600000 146.85900000
Ni 159.42000000 128.02200000 146.85900000
Ni 159.42000000 130.11600000 144.76800000
O 159.42000000 128.02200000 144.76800000
O 159.42000000 130.11600000 146.85900000
O 157.32600000 128.02200000 146.85900000
O 157.32600000 130.11600000 144.76800000
Ni 157.32600000 128.02200000 148.95300000
Ni 157.32600000 130.11600000 151.04700000
Ni 159.42000000 128.02200000 151.04700000
Ni 159.42000000 130.11600000 148.95300000
O 159.42000000 128.02200000 148.95300000
O 159.42000000 130.11600000 151.04700000
O 157.32600000 128.02200000 151.04700000
O 157.32600000 130.11600000 148.95300000
Ni 157.32600000 128.02200000 153.14100000
Ni 157.32600000 130.11600000 155.23200000
Ni 159.42000000 128.02200000 155.23200000
Ni 159.42000000 130.11600000 153.14100000
O 159.42000000 128.02200000 153.14100000
O 159.42000000 130.11600000 155.23200000
O 157.32600000 128.02200000 155.23200000
O 157.32600000 130.11600000 153.14100000
Ni 157.32600000 128.02200000 157.32600000
Ni 157.32600000 130.11600000 159.42000000
Ni 159.42000000 128.02200000 159.42000000
Ni 159.42000000 130.11600000 157.32600000
O 159.42000000 128.02200000 157.32600000
O 159.42000000 130.11600000 159.42000000
O 157.32600000 128.02200000 159.42000000
O 157.32600000 130.11600000 157.32600000
Ni 157.32600000 128.02200000 161.51100000
Ni 157.32600000 130.11600000 163.60500000
Ni 159.42000000 128.02200000 163.60500000
Ni 159.42000000 130.11600000 161.51100000
O 159.42000000 128.02200000 161.51100000
O 159.42000000 130.11600000 163.60500000
O 157.32600000 128.02200000 163.60500000
O 157.32600000 130.11600000 161.51100000
Ni 157.32600000 128.02200000 165.69900000
Ni 157.32600000 130.11600000 167.79300000
Ni 159.42000000 128.02200000 167.79300000
Ni 159.42000000 130.11600000 165.69900000
O 159.42000000 128.02200000 165.69900000
O 159.42000000 130.11600000 167.79300000
O 157.32600000 128.02200000 167.79300000
O 157.32600000 130.11600000 165.69900000
Ni 159.42000000 130.11600000 169.88400000
O 157.32600000 130.11600000 169.88400000
Ni 157.32600000 134.30100000 125.92800000
Ni 157.32600000 132.20700000 128.02200000
Ni 157.32600000 134.30100000 130.11600000
Ni 159.42000000 132.20700000 130.11600000
Ni 159.42000000 134.30100000 128.02200000
O 159.42000000 132.20700000 128.02200000
O 159.42000000 134.30100000 130.11600000
O 157.32600000 132.20700000 130.11600000
O 157.32600000 134.30100000 128.02200000
Ni 157.32600000 132.20700000 132.20700000
Ni 157.32600000 134.30100000 134.30100000
Ni 159.42000000 132.20700000 134.30100000
Ni 159.42000000 134.30100000 132.20700000
O 159.42000000 132.20700000 132.20700000
O 159.42000000 134.30100000 134.30100000
O 157.32600000 132.20700000 134.30100000
O 157.32600000 134.30100000 132.20700000
Ni 157.32600000 132.20700000 136.39500000
Ni 157.32600000 134.30100000 138.48900000
Ni 159.42000000 132.20700000 138.48900000
Ni 159.42000000 134.30100000 136.39500000
O 159.42000000 132.20700000 136.39500000
O 159.42000000 134.30100000 138.48900000
O 157.32600000 132.20700000 138.48900000
O 157.32600000 134.30100000 136.39500000
Ni 157.32600000 132.20700000 140.58000000
Ni 157.32600000 134.30100000 142.67400000
Ni 159.42000000 132.20700000 142.67400000
Ni 159.42000000 134.30100000 140.58000000
O 159.42000000 132.20700000 140.58000000
O 159.42000000 134.30100000 142.67400000
O 157.32600000 132.20700000 142.67400000
O 157.32600000 134.30100000 140.58000000
Ni 157.32600000 132.20700000 144.76800000
Ni 157.32600000 134.30100000 146.85900000
Ni 159.42000000 132.20700000 146.85900000
Ni 159.42000000 134.30100000 144.76800000
O 159.42000000 132.20700000 144.76800000
O 159.42000000 134.30100000 146.85900000
O 157.32600000 132.20700000 146.85900000
O 157.32600000 134.30100000 144.76800000
Ni 157.32600000 132.20700000 148.95300000
Ni 157.32600000 134.30100000 151.04700000
Ni 159.42000000 132.20700000 151.04700000
Ni 159.42000000 134.30100000 148.95300000
O 159.42000000 132.20700000 148.95300000
O 159.42000000 134.30100000 151.04700000
O 157.32600000 132.20700000 151.04700000
O 157.32600000 134.30100000 148.95300000
Ni 157.32600000 132.20700000 153.14100000
Ni 157.32600000 134.30100000 155.23200000
Ni 159.42000000 132.20700000 155.23200000
Ni 159.42000000 134.30100000 153.14100000
O 159.42000000 132.20700000 153.14100000
O 159.42000000 134.30100000 155.23200000
O 157.32600000 132.20700000 155.23200000
O 157.32600000 134.30100000 153.14100000
Ni 157.32600000 132.20700000 157.32600000
Ni 157.32600000 134.30100000 159.42000000
Ni 159.42000000 132.20700000 159.42000000
Ni 159.42000000 134.30100000 157.32600000
O 159.42000000 132.20700000 157.32600000
O 159.42000000 134.30100000 159.42000000
O 157.32600000 132.20700000 159.42000000
O 157.32600000 134.30100000 157.32600000
Ni 157.32600000 132.20700000 161.51100000
Ni 157.32600000 134.30100000 163.60500000
Ni 159.42000000 132.20700000 163.60500000
Ni 159.42000000 134.30100000 161.51100000
O 159.42000000 132.20700000 161.51100000
O 159.42000000 134.30100000 163.60500000
O 157.32600000 132.20700000 163.60500000
O 157.32600000 134.30100000 161.51100000
Ni 157.32600000 132.20700000 165.69900000
Ni 157.32600000 134.30100000 167.79300000
Ni 159.42000000 132.20700000 167.79300000
Ni 159.42000000 134.30100000 165.69900000
O 159.42000000 132.20700000 165.69900000
O 159.42000000 134.30100000 167.79300000
O 157.32600000 132.20700000 167.79300000
O 157.32600000 134.30100000 165.69900000
Ni 157.32600000 132.20700000 169.88400000
Ni 157.32600000 134.30100000 171.97800000
Ni 159.42000000 132.20700000 171.97800000
Ni 159.42000000 134.30100000 169.88400000
O 159.42000000 132.20700000 169.88400000
O 159.42000000 134.30100000 171.97800000
O 157.32600000 132.20700000 171.97800000
O 157.32600000 134.30100000 169.88400000
O 157.32600000 134.30100000 174.07200000
Ni 157.32600000 138.48900000 125.92800000
Ni 159.42000000 136.39500000 125.92800000
O 159.42000000 138.48900000 125.92800000
O 157.32600000 136.39500000 125.92800000
O 157.32600000 138.48900000 123.83700000
Ni 157.32600000 136.39500000 128.02200000
Ni 157.32600000 138.48900000 130.11600000
Ni 159.42000000 136.39500000 130.11600000
Ni 159.42000000 138.48900000 128.02200000
O 159.42000000 136.39500000 128.02200000
O 159.42000000 138.48900000 130.11600000
O 157.32600000 136.39500000 130.11600000
O 157.32600000 138.48900000 128.02200000
Ni 157.32600000 136.39500000 132.20700000
Ni 157.32600000 138.48900000 134.30100000
Ni 159.42000000 136.39500000 134.30100000
Ni 159.42000000 138.48900000 132.20700000
O 159.42000000 136.39500000 132.20700000
O 159.42000000 138.48900000 134.30100000
O 157.32600000 136.39500000 134.30100000
O 157.32600000 138.48900000 132.20700000
Ni 157.32600000 136.39500000 136.39500000
Ni 157.32600000 138.48900000 138.48900000
Ni 159.42000000 136.39500000 138.48900000
Ni 159.42000000 138.48900000 136.39500000
O 159.42000000 136.39500000 136.39500000
O 159.42000000 138.48900000 138.48900000
O 157.32600000 136.39500000 138.48900000
O 157.32600000 138.48900000 136.39500000
Ni 157.32600000 136.39500000 140.58000000
Ni 157.32600000 138.48900000 142.67400000
Ni 159.42000000 136.39500000 142.67400000
Ni 159.42000000 138.48900000 140.58000000
O 159.42000000 136.39500000 140.58000000
O 159.42000000 138.48900000 142.67400000
O 157.32600000 136.39500000 142.67400000
O 157.32600000 138.48900000 140.58000000
Ni 157.32600000 136.39500000 144.76800000
Ni 157.32600000 138.48900000 146.85900000
Ni 159.42000000 136.39500000 146.85900000
Ni 159.42000000 138.48900000 144.76800000
O 159.42000000 136.39500000 144.76800000
O 159.42000000 138.48900000 146.85900000
O 157.32600000 136.39500000 146.85900000
O 157.32600000 138.48900000 144.76800000
Ni 157.32600000 136.39500000 148.95300000
Ni 157.32600000 138.48900000 151.04700000
Ni 159.42000000 136.39500000 151.04700000
Ni 159.42000000 138.48900000 148.95300000
O 159.42000000 136.39500000 148.95300000
O 159.42000000 138.48900000 151.04700000
O 157.32600000 136.39500000 151.04700000
O 157.32600000 138.48900000 148.95300000
Ni 157.32600000 136.39500000 153.14100000
Ni 157.32600000 138.48900000 155.23200000
Ni 159.42000000 136.39500000 155.23200000
Ni 159.42000000 138.48900000 153.14100000
O 159.42000000 136.39500000 153.14100000
O 159.42000000 138.48900000 155.23200000
O 157.32600000 136.39500000 155.23200000
O 157.32600000 138.48900000 153.14100000
Ni 157.32600000 136.39500000 157.32600000
Ni 157.32600000 138.48900000 159.42000000
Ni 159.42000000 136.39500000 159.42000000
Ni 159.42000000 138.48900000 157.32600000
O 159.42000000 136.39500000 157.32600000
O 159.42000000 138.48900000 159.42000000
O 157.32600000 136.39500000 159.42000000
O 157.32600000 138.48900000 157.32600000
Ni 157.32600000 136.39500000 161.51100000
Ni 157.32600000 138.48900000 163.60500000
Ni 159.42000000 136.39500000 163.60500000
Ni 159.42000000 138.48900000 161.51100000
O 159.42000000 136.39500000 161.51100000
O 159.42000000 138.48900000 163.60500000
O 157.32600000 136.39500000 163.60500000
O 157.32600000 138.48900000 161.51100000
Ni 157.32600000 136.39500000 165.69900000
Ni 157.32600000 138.48900000 167.79300000
Ni 159.42000000 136.39500000 167.79300000
Ni 159.42000000 138.48900000 165.69900000
O 159.42000000 136.39500000 165.69900000
O 159.42000000 138.48900000 167.79300000
O 157.32600000 136.39500000 167.79300000
O 157.32600000 138.48900000 165.69900000
Ni 157.32600000 136.39500000 169.88400000
Ni 157.32600000 138.48900000 171.97800000
Ni 159.42000000 136.39500000 171.97800000
Ni 159.42000000 138.48900000 169.88400000
O 159.42000000 136.39500000 169.88400000
O 159.42000000 138.48900000 171.97800000
O 157.32600000 136.39500000 171.97800000
O 157.32600000 138.48900000 169.88400000
Ni 157.32600000 136.39500000 174.07200000
Ni 157.32600000 138.48900000 176.16300000
Ni 159.42000000 138.48900000 174.07200000
O 159.42000000 136.39500000 174.07200000
O 157.32600000 138.48900000 174.07200000
Ni 157.32600000 140.58000000 123.83700000
Ni 157.32600000 142.67400000 125.92800000
Ni 159.42000000 140.58000000 125.92800000
Ni 159.42000000 142.67400000 123.83700000
O 159.42000000 140.58000000 123.83700000
O 159.42000000 142.67400000 125.92800000
O 157.32600000 140.58000000 125.92800000
O 157.32600000 142.67400000 123.83700000
Ni 157.32600000 140.58000000 128.02200000
Ni 157.32600000 142.67400000 130.11600000
Ni 159.42000000 140.58000000 130.11600000
Ni 159.42000000 142.67400000 128.02200000
O 159.42000000 140.58000000 128.02200000
O 159.42000000 142.67400000 130.11600000
O 157.32600000 140.58000000 130.11600000
O 157.32600000 142.67400000 128.02200000
Ni 157.32600000 140.58000000 132.20700000
Ni 157.32600000 142.67400000 134.30100000
Ni 159.42000000 140.58000000 134.30100000
Ni 159.42000000 142.67400000 132.20700000
O 159.42000000 140.58000000 132.20700000
O 159.42000000 142.67400000 134.30100000
O 157.32600000 140.58000000 134.30100000
O 157.32600000 142.67400000 132.20700000
Ni 157.32600000 140.58000000 136.39500000
Ni 157.32600000 142.67400000 138.48900000
Ni 159.42000000 140.58000000 138.48900000
Ni 159.42000000 142.67400000 136.39500000
O 159.42000000 140.58000000 136.39500000
O 159.42000000 142.67400000 138.48900000
O 157.32600000 140.58000000 138.48900000
O 157.32600000 142.67400000 136.39500000
Ni 157.32600000 140.58000000 140.58000000
Ni 157.32600000 142.67400000 142.67400000
Ni 159.42000000 140.58000000 142.67400000
Ni 159.42000000 142.67400000 140.58000000
O 159.42000000 140.58000000 140.58000000
O 159.42000000 142.67400000 142.67400000
O 157.32600000 140.58000000 142.67400000
O 157.32600000 142.67400000 140.58000000
Ni 157.32600000 140.58000000 144.76800000
Ni 157.32600000 142.67400000 146.85900000
Ni 159.42000000 140.58000000 146.85900000
Ni 159.42000000 142.67400000 144.76800000
O 159.42000000 140.58000000 144.76800000
O 159.42000000 142.67400000 146.85900000
O 157.32600000 140.58000000 146.85900000
O 157.32600000 142.67400000 144.76800000
Ni 157.32600000 140.58000000 148.95300000
Ni 157.32600000 142.67400000 151.04700000
Ni 159.42000000 140.58000000 151.04700000
Ni 159.42000000 142.67400000 148.95300000
O 159.42000000 140.58000000 148.95300000
O 159.42000000 142.67400000 151.04700000
O 157.32600000 140.58000000 151.04700000
O 157.32600000 142.67400000 148.95300000
Ni 157.32600000 140.58000000 153.14100000
Ni 157.32600000 142.67400000 155.23200000
Ni 159.42000000 140.58000000 155.23200000
Ni 159.42000000 142.67400000 153.14100000
O 159.42000000 140.58000000 153.14100000
O 159.42000000 142.67400000 155.23200000
O 157.32600000 140.58000000 155.23200000
O 157.32600000 142.67400000 153.14100000
Ni 157.32600000 140.58000000 157.32600000
Ni 157.32600000 142.67400000 159.42000000
Ni 159.42000000 140.58000000 159.42000000
Ni 159.42000000 142.67400000 157.32600000
O 159.42000000 140.58000000 157.32600000
O 159.42000000 142.67400000 159.42000000
O 157.32600000 140.58000000 159.42000000
O 157.32600000 142.67400000 157.32600000
Ni 157.32600000 140.58000000 161.51100000
Ni 157.32600000 142.67400000 163.60500000
Ni 159.42000000 140.58000000 163.60500000
Ni 159.42000000 142.67400000 161.51100000
O 159.42000000 140.58000000 161.51100000
O 159.42000000 142.67400000 163.60500000
O 157.32600000 140.58000000 163.60500000
O 157.32600000 142.67400000 161.51100000
Ni 157.32600000 140.58000000 165.69900000
Ni 157.32600000 142.67400000 167.79300000
Ni 159.42000000 140.58000000 167.79300000
Ni 159.42000000 142.67400000 165.69900000
O 159.42000000 140.58000000 165.69900000
O 159.42000000 142.67400000 167.79300000
O 157.32600000 140.58000000 167.79300000
O 157.32600000 142.67400000 165.69900000
Ni 157.32600000 140.58000000 169.88400000
Ni 157.32600000 142.67400000 171.97800000
Ni 159.42000000 140.58000000 171.97800000
Ni 159.42000000 142.67400000 169.88400000
O 159.42000000 140.58000000 169.88400000
O 159.42000000 142.67400000 171.97800000
O 157.32600000 140.58000000 171.97800000
O 157.32600000 142.67400000 169.88400000
Ni 157.32600000 140.58000000 174.07200000
Ni 157.32600000 142.67400000 176.16300000
Ni 159.42000000 140.58000000 176.16300000
Ni 159.42000000 142.67400000 174.07200000
O 159.42000000 140.58000000 174.07200000
O 159.42000000 142.67400000 176.16300000
O 157.32600000 140.58000000 176.16300000
O 157.32600000 142.67400000 174.07200000
Ni 157.32600000 146.85900000 121.74300000
O 159.42000000 146.85900000 121.74300000
O 157.32600000 144.76800000 121.74300000
Ni 157.32600000 144.76800000 123.83700000
Ni 157.32600000 146.85900000 125.92800000
Ni 159.42000000 144.76800000 125.92800000
Ni 159.42000000 146.85900000 123.83700000
O 159.42000000 144.76800000 123.83700000
O 159.42000000 146.85900000 125.92800000
O 157.32600000 144.76800000 125.92800000
O 157.32600000 146.85900000 123.83700000
Ni 157.32600000 144.76800000 128.02200000
Ni 157.32600000 146.85900000 130.11600000
Ni 159.42000000 144.76800000 130.11600000
Ni 159.42000000 146.85900000 128.02200000
O 159.42000000 144.76800000 128.02200000
O 159.42000000 146.85900000 130.11600000
O 157.32600000 144.76800000 130.11600000
O 157.32600000 146.85900000 128.02200000
Ni 157.32600000 144.76800000 132.20700000
Ni 157.32600000 146.85900000 134.30100000
Ni 159.42000000 144.76800000 134.30100000
Ni 159.42000000 146.85900000 132.20700000
O 159.42000000 144.76800000 132.20700000
O 159.42000000 146.85900000 134.30100000
O 157.32600000 144.76800000 134.30100000
O 157.32600000 146.85900000 132.20700000
Ni 157.32600000 144.76800000 136.39500000
Ni 157.32600000 146.85900000 138.48900000
Ni 159.42000000 144.76800000 138.48900000
Ni 159.42000000 146.85900000 136.39500000
O 159.42000000 144.76800000 136.39500000
O 159.42000000 146.85900000 138.48900000
O 157.32600000 144.76800000 138.48900000
O 157.32600000 146.85900000 136.39500000
Ni 157.32600000 144.76800000 140.58000000
Ni 157.32600000 146.85900000 142.67400000
Ni 159.42000000 144.76800000 142.67400000
Ni 159.42000000 146.85900000 140.58000000
O 159.42000000 144.76800000 140.58000000
O 159.42000000 146.85900000 142.67400000
O 157.32600000 144.76800000 142.67400000
O 157.32600000 146.85900000 140.58000000
Ni 157.32600000 144.76800000 144.76800000
Ni 157.32600000 146.85900000 146.85900000
Ni 159.42000000 144.76800000 146.85900000
Ni 159.42000000 146.85900000 144.76800000
O 159.42000000 144.76800000 144.76800000
O 159.42000000 146.85900000 146.85900000
O 157.32600000 144.76800000 146.85900000
O 157.32600000 146.85900000 144.76800000
Ni 157.32600000 144.76800000 148.95300000
Ni 157.32600000 146.85900000 151.04700000
Ni 159.42000000 144.76800000 151.04700000
Ni 159.42000000 146.85900000 148.95300000
O 159.42000000 144.76800000 148.95300000
O 159.42000000 146.85900000 151.04700000
O 157.32600000 144.76800000 151.04700000
O 157.32600000 146.85900000 148.95300000
Ni 157.32600000 144.76800000 153.14100000
Ni 157.32600000 146.85900000 155.23200000
Ni 159.42000000 144.76800000 155.23200000
Ni 159.42000000 146.85900000 153.14100000
O 159.42000000 144.76800000 153.14100000
O 159.42000000 146.85900000 155.23200000
O 157.32600000 144.76800000 155.23200000
O 157.32600000 146.85900000 153.14100000
Ni 157.32600000 144.76800000 157.32600000
Ni 157.32600000 146.85900000 159.42000000
Ni 159.42000000 144.76800000 159.42000000
Ni 159.42000000 146.85900000 157.32600000
O 159.42000000 144.76800000 157.32600000
O 159.42000000 146.85900000 159.42000000
O 157.32600000 144.76800000 159.42000000
O 157.32600000 146.85900000 157.32600000
Ni 157.32600000 144.76800000 161.51100000
Ni 157.32600000 146.85900000 163.60500000
Ni 159.42000000 144.76800000 163.60500000
Ni 159.42000000 146.85900000 161.51100000
O 159.42000000 144.76800000 161.51100000
O 159.42000000 146.85900000 163.60500000
O 157.32600000 144.76800000 163.60500000
O 157.32600000 146.85900000 161.51100000
Ni 157.32600000 144.76800000 165.69900000
Ni 157.32600000 146.85900000 167.79300000
Ni 159.42000000 144.76800000 167.79300000
Ni 159.42000000 146.85900000 165.69900000
O 159.42000000 144.76800000 165.69900000
O 159.42000000 146.85900000 167.79300000
O 157.32600000 144.76800000 167.79300000
O 157.32600000 146.85900000 165.69900000
Ni 157.32600000 144.76800000 169.88400000
Ni 157.32600000 146.85900000 171.97800000
Ni 159.42000000 144.76800000 171.97800000
Ni 159.42000000 146.85900000 169.88400000
O 159.42000000 144.76800000 169.88400000
O 159.42000000 146.85900000 171.97800000
O 157.32600000 144.76800000 171.97800000
O 157.32600000 146.85900000 169.88400000
Ni 157.32600000 144.76800000 174.07200000
Ni 157.32600000 146.85900000 176.16300000
Ni 159.42000000 144.76800000 176.16300000
Ni 159.42000000 146.85900000 174.07200000
O 159.42000000 144.76800000 174.07200000
O 159.42000000 146.85900000 176.16300000
O 157.32600000 144.76800000 176.16300000
O 157.32600000 146.85900000 174.07200000
Ni 157.32600000 144.76800000 178.25700000
Ni 159.42000000 146.85900000 178.25700000
O 157.32600000 146.85900000 178.25700000
Ni 157.32600000 151.04700000 121.74300000
Ni 159.42000000 148.95300000 121.74300000
O 159.42000000 151.04700000 121.74300000
O 157.32600000 148.95300000 121.74300000
Ni 157.32600000 148.95300000 123.83700000
Ni 157.32600000 151.04700000 125.92800000
Ni 159.42000000 148.95300000 125.92800000
Ni 159.42000000 151.04700000 123.83700000
O 159.42000000 148.95300000 123.83700000
O 159.42000000 151.04700000 125.92800000
O 157.32600000 148.95300000 125.92800000
O 157.32600000 151.04700000 123.83700000
Ni 157.32600000 148.95300000 128.02200000
Ni 157.32600000 151.04700000 130.11600000
Ni 159.42000000 148.95300000 130.11600000
Ni 159.42000000 151.04700000 128.02200000
O 159.42000000 148.95300000 128.02200000
O 159.42000000 151.04700000 130.11600000
O 157.32600000 148.95300000 130.11600000
O 157.32600000 151.04700000 128.02200000
Ni 157.32600000 148.95300000 132.20700000
Ni 157.32600000 151.04700000 134.30100000
Ni 159.42000000 148.95300000 134.30100000
Ni 159.42000000 151.04700000 132.20700000
O 159.42000000 148.95300000 132.20700000
O 159.42000000 151.04700000 134.30100000
O 157.32600000 148.95300000 134.30100000
O 157.32600000 151.04700000 132.20700000
Ni 157.32600000 148.95300000 136.39500000
Ni 157.32600000 151.04700000 138.48900000
Ni 159.42000000 148.95300000 138.48900000
Ni 159.42000000 151.04700000 136.39500000
O 159.42000000 148.95300000 136.39500000
O 159.42000000 151.04700000 138.48900000
O 157.32600000 148.95300000 138.48900000
O 157.32600000 151.04700000 136.39500000
Ni 157.32600000 148.95300000 140.58000000
Ni 157.32600000 151.04700000 142.67400000
Ni 159.42000000 148.95300000 142.67400000
Ni 159.42000000 151.04700000 140.58000000
O 159.42000000 148.95300000 140.58000000
O 159.42000000 151.04700000 142.67400000
O 157.32600000 148.95300000 142.67400000
O 157.32600000 151.04700000 140.58000000
Ni 157.32600000 148.95300000 144.76800000
Ni 157.32600000 151.04700000 146.85900000
Ni 159.42000000 148.95300000 146.85900000
Ni 159.42000000 151.04700000 144.76800000
O 159.42000000 148.95300000 144.76800000
O 159.42000000 151.04700000 146.85900000
O 157.32600000 148.95300000 146.85900000
O 157.32600000 151.04700000 144.76800000
Ni 157.32600000 148.95300000 148.95300000
Ni 157.32600000 151.04700000 151.04700000
Ni 159.42000000 148.95300000 151.04700000
Ni 159.42000000 151.04700000 148.95300000
O 159.42000000 148.95300000 148.95300000
O 159.42000000 151.04700000 151.04700000
O 157.32600000 148.95300000 151.04700000
O 157.32600000 151.04700000 148.95300000
Ni 157.32600000 148.95300000 153.14100000
Ni 157.32600000 151.04700000 155.23200000
Ni 159.42000000 148.95300000 155.23200000
Ni 159.42000000 151.04700000 153.14100000
O 159.42000000 148.95300000 153.14100000
O 159.42000000 151.04700000 155.23200000
O 157.32600000 148.95300000 155.23200000
O 157.32600000 151.04700000 153.14100000
Ni 157.32600000 148.95300000 157.32600000
Ni 157.32600000 151.04700000 159.42000000
Ni 159.42000000 148.95300000 159.42000000
Ni 159.42000000 151.04700000 157.32600000
O 159.42000000 148.95300000 157.32600000
O 159.42000000 151.04700000 159.42000000
O 157.32600000 148.95300000 159.42000000
O 157.32600000 151.04700000 157.32600000
Ni 157.32600000 148.95300000 161.51100000
Ni 157.32600000 151.04700000 163.60500000
Ni 159.42000000 148.95300000 163.60500000
Ni 159.42000000 151.04700000 161.51100000
O 159.42000000 148.95300000 161.51100000
O 159.42000000 151.04700000 163.60500000
O 157.32600000 148.95300000 163.60500000
O 157.32600000 151.04700000 161.51100000
Ni 157.32600000 148.95300000 165.69900000
Ni 157.32600000 151.04700000 167.79300000
Ni 159.42000000 148.95300000 167.79300000
Ni 159.42000000 151.04700000 165.69900000
O 159.42000000 148.95300000 165.69900000
O 159.42000000 151.04700000 167.79300000
O 157.32600000 148.95300000 167.79300000
O 157.32600000 151.04700000 165.69900000
Ni 157.32600000 148.95300000 169.88400000
Ni 157.32600000 151.04700000 171.97800000
Ni 159.42000000 148.95300000 171.97800000
Ni 159.42000000 151.04700000 169.88400000
O 159.42000000 148.95300000 169.88400000
O 159.42000000 151.04700000 171.97800000
O 157.32600000 148.95300000 171.97800000
O 157.32600000 151.04700000 169.88400000
Ni 157.32600000 148.95300000 174.07200000
Ni 157.32600000 151.04700000 176.16300000
Ni 159.42000000 148.95300000 176.16300000
Ni 159.42000000 151.04700000 174.07200000
O 159.42000000 148.95300000 174.07200000
O 159.42000000 151.04700000 176.16300000
O 157.32600000 148.95300000 176.16300000
O 157.32600000 151.04700000 174.07200000
Ni 157.32600000 148.95300000 178.25700000
Ni 159.42000000 151.04700000 178.25700000
O 159.42000000 148.95300000 178.25700000
O 157.32600000 151.04700000 178.25700000
Ni 157.32600000 155.23200000 121.74300000
Ni 159.42000000 153.14100000 121.74300000
O 157.32600000 153.14100000 121.74300000
Ni 157.32600000 153.14100000 123.83700000
Ni 157.32600000 155.23200000 125.92800000
Ni 159.42000000 153.14100000 125.92800000
Ni 159.42000000 155.23200000 123.83700000
O 159.42000000 153.14100000 123.83700000
O 159.42000000 155.23200000 125.92800000
O 157.32600000 153.14100000 125.92800000
O 157.32600000 155.23200000 123.83700000
Ni 157.32600000 153.14100000 128.02200000
Ni 157.32600000 155.23200000 130.11600000
Ni 159.42000000 153.14100000 130.11600000
Ni 159.42000000 155.23200000 128.02200000
O 159.42000000 153.14100000 128.02200000
O 159.42000000 155.23200000 130.11600000
O 157.32600000 153.14100000 130.11600000
O 157.32600000 155.23200000 128.02200000
Ni 157.32600000 153.14100000 132.20700000
Ni 157.32600000 155.23200000 134.30100000
Ni 159.42000000 153.14100000 134.30100000
Ni 159.42000000 155.23200000 132.20700000
O 159.42000000 153.14100000 132.20700000
O 159.42000000 155.23200000 134.30100000
O 157.32600000 153.14100000 134.30100000
O 157.32600000 155.23200000 132.20700000
Ni 157.32600000 153.14100000 136.39500000
Ni 157.32600000 155.23200000 138.48900000
Ni 159.42000000 153.14100000 138.48900000
Ni 159.42000000 155.23200000 136.39500000
O 159.42000000 153.14100000 136.39500000
O 159.42000000 155.23200000 138.48900000
O 157.32600000 153.14100000 138.48900000
O 157.32600000 155.23200000 136.39500000
Ni 157.32600000 153.14100000 140.58000000
Ni 157.32600000 155.23200000 142.67400000
Ni 159.42000000 153.14100000 142.67400000
Ni 159.42000000 155.23200000 140.58000000
O 159.42000000 153.14100000 140.58000000
O 159.42000000 155.23200000 142.67400000
O 157.32600000 153.14100000 142.67400000
O 157.32600000 155.23200000 140.58000000
Ni 157.32600000 153.14100000 144.76800000
Ni 157.32600000 155.23200000 146.85900000
Ni 159.42000000 153.14100000 146.85900000
Ni 159.42000000 155.23200000 144.76800000
O 159.42000000 153.14100000 144.76800000
O 159.42000000 155.23200000 146.85900000
O 157.32600000 153.14100000 146.85900000
O 157.32600000 155.23200000 144.76800000
Ni 157.32600000 153.14100000 148.95300000
Ni 157.32600000 155.23200000 151.04700000
Ni 159.42000000 153.14100000 151.04700000
Ni 159.42000000 155.23200000 148.95300000
O 159.42000000 153.14100000 148.95300000
O 159.42000000 155.23200000 151.04700000
O 157.32600000 153.14100000 151.04700000
O 157.32600000 155.23200000 148.95300000
Ni 157.32600000 153.14100000 153.14100000
Ni 157.32600000 155.23200000 155.23200000
Ni 159.42000000 153.14100000 155.23200000
Ni 159.42000000 155.23200000 153.14100000
O 159.42000000 153.14100000 153.14100000
O 159.42000000 155.23200000 155.23200000
O 157.32600000 153.14100000 155.23200000
O 157.32600000 155.23200000 153.14100000
Ni 157.32600000 153.14100000 157.32600000
Ni 157.32600000 155.23200000 159.42000000
Ni 159.42000000 153.14100000 159.42000000
Ni 159.42000000 155.23200000 157.32600000
O 159.42000000 153.14100000 157.32600000
O 159.42000000 155.23200000 159.42000000
O 157.32600000 153.14100000 159.42000000
O 157.32600000 155.23200000 157.32600000
Ni 157.32600000 153.14100000 161.51100000
Ni 157.32600000 155.23200000 163.60500000
Ni 159.42000000 153.14100000 163.60500000
Ni 159.42000000 155.23200000 161.51100000
O 159.42000000 153.14100000 161.51100000
O 159.42000000 155.23200000 163.60500000
O 157.32600000 153.14100000 163.60500000
O 157.32600000 155.23200000 161.51100000
Ni 157.32600000 153.14100000 165.69900000
Ni 157.32600000 155.23200000 167.79300000
Ni 159.42000000 153.14100000 167.79300000
Ni 159.42000000 155.23200000 165.69900000
O 159.42000000 153.14100000 165.69900000
O 159.42000000 155.23200000 167.79300000
O 157.32600000 153.14100000 167.79300000
O 157.32600000 155.23200000 165.69900000
Ni 157.32600000 153.14100000 169.88400000
Ni 157.32600000 155.23200000 171.97800000
Ni 159.42000000 153.14100000 171.97800000
Ni 159.42000000 155.23200000 169.88400000
O 159.42000000 153.14100000 169.88400000
O 159.42000000 155.23200000 171.97800000
O 157.32600000 153.14100000 171.97800000
O 157.32600000 155.23200000 169.88400000
Ni 157.32600000 153.14100000 174.07200000
Ni 157.32600000 155.23200000 176.16300000
Ni 159.42000000 153.14100000 176.16300000
Ni 159.42000000 155.23200000 174.07200000
O 159.42000000 153.14100000 174.07200000
O 159.42000000 155.23200000 176.16300000
O 157.32600000 153.14100000 176.16300000
O 157.32600000 155.23200000 174.07200000
Ni 157.32600000 153.14100000 178.25700000
O 159.42000000 153.14100000 178.25700000
O 157.32600000 155.23200000 178.25700000
Ni 157.32600000 157.32600000 123.83700000
Ni 157.32600000 159.42000000 125.92800000
Ni 159.42000000 157.32600000 125.92800000
Ni 159.42000000 159.42000000 123.83700000
O 159.42000000 157.32600000 123.83700000
O 159.42000000 159.42000000 125.92800000
O 157.32600000 157.32600000 125.92800000
O 157.32600000 159.42000000 123.83700000
Ni 157.32600000 157.32600000 128.02200000
Ni 157.32600000 159.42000000 130.11600000
Ni 159.42000000 157.32600000 130.11600000
Ni 159.42000000 159.42000000 128.02200000
O 159.42000000 157.32600000 128.02200000
O 159.42000000 159.42000000 130.11600000
O 157.32600000 157.32600000 130.11600000
O 157.32600000 159.42000000 128.02200000
Ni 157.32600000 157.32600000 132.20700000
Ni 157.32600000 159.42000000 134.30100000
Ni 159.42000000 157.32600000 134.30100000
Ni 159.42000000 159.42000000 132.20700000
O 159.42000000 157.32600000 132.20700000
O 159.42000000 159.42000000 134.30100000
O 157.32600000 157.32600000 134.30100000
O 157.32600000 159.42000000 132.20700000
Ni 157.32600000 157.32600000 136.39500000
Ni 157.32600000 159.42000000 138.48900000
Ni 159.42000000 157.32600000 138.48900000
Ni 159.42000000 159.42000000 136.39500000
O 159.42000000 157.32600000 136.39500000
O 159.42000000 159.42000000 138.48900000
O 157.32600000 157.32600000 138.48900000
O 157.32600000 159.42000000 136.39500000
Ni 157.32600000 157.32600000 140.58000000
Ni 157.32600000 159.42000000 142.67400000
Ni 159.42000000 157.32600000 142.67400000
Ni 159.42000000 159.42000000 140.58000000
O 159.42000000 157.32600000 140.58000000
O 159.42000000 159.42000000 142.67400000
O 157.32600000 157.32600000 142.67400000
O 157.32600000 159.42000000 140.58000000
Ni 157.32600000 157.32600000 144.76800000
Ni 157.32600000 159.42000000 146.85900000
Ni 159.42000000 157.32600000 146.85900000
Ni 159.42000000 159.42000000 144.76800000
O 159.42000000 157.32600000 144.76800000
O 159.42000000 159.42000000 146.85900000
O 157.32600000 157.32600000 146.85900000
O 157.32600000 159.42000000 144.76800000
Ni 157.32600000 157.32600000 148.95300000
Ni 157.32600000 159.42000000 151.04700000
Ni 159.42000000 157.32600000 151.04700000
Ni 159.42000000 159.42000000 148.95300000
O 159.42000000 157.32600000 148.95300000
O 159.42000000 159.42000000 151.04700000
O 157.32600000 157.32600000 151.04700000
O 157.32600000 159.42000000 148.95300000
Ni 157.32600000 157.32600000 153.14100000
Ni 157.32600000 159.42000000 155.23200000
Ni 159.42000000 157.32600000 155.23200000
Ni 159.42000000 159.42000000 153.14100000
O 159.42000000 157.32600000 153.14100000
O 159.42000000 159.42000000 155.23200000
O 157.32600000 157.32600000 155.23200000
O 157.32600000 159.42000000 153.14100000
Ni 157.32600000 157.32600000 157.32600000
Ni 157.32600000 159.42000000 159.42000000
Ni 159.42000000 157.32600000 159.42000000
Ni 159.42000000 159.42000000 157.32600000
O 159.42000000 157.32600000 157.32600000
O 159.42000000 159.42000000 159.42000000
O 157.32600000 157.32600000 159.42000000
O 157.32600000 159.42000000 157.32600000
Ni 157.32600000 157.32600000 161.51100000
Ni 157.32600000 159.42000000 163.60500000
Ni 159.42000000 157.32600000 163.60500000
Ni 159.42000000 159.42000000 161.51100000
O 159.42000000 157.32600000 161.51100000
O 159.42000000 159.42000000 163.60500000
O 157.32600000 157.32600000 163.60500000
O 157.32600000 159.42000000 161.51100000
Ni 157.32600000 157.32600000 165.69900000
Ni 157.32600000 159.42000000 167.79300000
Ni 159.42000000 157.32600000 167.79300000
Ni 159.42000000 159.42000000 165.69900000
O 159.42000000 157.32600000 165.69900000
O 159.42000000 159.42000000 167.79300000
O 157.32600000 157.32600000 167.79300000
O 157.32600000 159.42000000 165.69900000
Ni 157.32600000 157.32600000 169.88400000
Ni 157.32600000 159.42000000 171.97800000
Ni 159.42000000 157.32600000 171.97800000
Ni 159.42000000 159.42000000 169.88400000
O 159.42000000 157.32600000 169.88400000
O 159.42000000 159.42000000 171.97800000
O 157.32600000 157.32600000 171.97800000
O 157.32600000 159.42000000 169.88400000
Ni 157.32600000 157.32600000 174.07200000
Ni 157.32600000 159.42000000 176.16300000
Ni 159.42000000 157.32600000 176.16300000
Ni 159.42000000 159.42000000 174.07200000
O 159.42000000 157.32600000 174.07200000
O 159.42000000 159.42000000 176.16300000
O 157.32600000 157.32600000 176.16300000
O 157.32600000 159.42000000 174.07200000
Ni 157.32600000 161.51100000 123.83700000
Ni 157.32600000 163.60500000 125.92800000
Ni 159.42000000 161.51100000 125.92800000
O 159.42000000 163.60500000 125.92800000
O 157.32600000 161.51100000 125.92800000
Ni 157.32600000 161.51100000 128.02200000
Ni 157.32600000 163.60500000 130.11600000
Ni 159.42000000 161.51100000 130.11600000
Ni 159.42000000 163.60500000 128.02200000
O 159.42000000 161.51100000 128.02200000
O 159.42000000 163.60500000 130.11600000
O 157.32600000 161.51100000 130.11600000
O 157.32600000 163.60500000 128.02200000
Ni 157.32600000 161.51100000 132.20700000
Ni 157.32600000 163.60500000 134.30100000
Ni 159.42000000 161.51100000 134.30100000
Ni 159.42000000 163.60500000 132.20700000
O 159.42000000 161.51100000 132.20700000
O 159.42000000 163.60500000 134.30100000
O 157.32600000 161.51100000 134.30100000
O 157.32600000 163.60500000 132.20700000
Ni 157.32600000 161.51100000 136.39500000
Ni 157.32600000 163.60500000 138.48900000
Ni 159.42000000 161.51100000 138.48900000
Ni 159.42000000 163.60500000 136.39500000
O 159.42000000 161.51100000 136.39500000
O 159.42000000 163.60500000 138.48900000
O 157.32600000 161.51100000 138.48900000
O 157.32600000 163.60500000 136.39500000
Ni 157.32600000 161.51100000 140.58000000
Ni 157.32600000 163.60500000 142.67400000
Ni 159.42000000 161.51100000 142.67400000
Ni 159.42000000 163.60500000 140.58000000
O 159.42000000 161.51100000 140.58000000
O 159.42000000 163.60500000 142.67400000
O 157.32600000 161.51100000 142.67400000
O 157.32600000 163.60500000 140.58000000
Ni 157.32600000 161.51100000 144.76800000
Ni 157.32600000 163.60500000 146.85900000
Ni 159.42000000 161.51100000 146.85900000
Ni 159.42000000 163.60500000 144.76800000
O 159.42000000 161.51100000 144.76800000
O 159.42000000 163.60500000 146.85900000
O 157.32600000 161.51100000 146.85900000
O 157.32600000 163.60500000 144.76800000
Ni 157.32600000 161.51100000 148.95300000
Ni 157.32600000 163.60500000 151.04700000
Ni 159.42000000 161.51100000 151.04700000
Ni 159.42000000 163.60500000 148.95300000
O 159.42000000 161.51100000 148.95300000
O 159.42000000 163.60500000 151.04700000
O 157.32600000 161.51100000 151.04700000
O 157.32600000 163.60500000 148.95300000
Ni 157.32600000 161.51100000 153.14100000
Ni 157.32600000 163.60500000 155.23200000
Ni 159.42000000 161.51100000 155.23200000
Ni 159.42000000 163.60500000 153.14100000
O 159.42000000 161.51100000 153.14100000
O 159.42000000 163.60500000 155.23200000
O 157.32600000 161.51100000 155.23200000
O 157.32600000 163.60500000 153.14100000
Ni 157.32600000 161.51100000 157.32600000
Ni 157.32600000 163.60500000 159.42000000
Ni 159.42000000 161.51100000 159.42000000
Ni 159.42000000 163.60500000 157.32600000
O 159.42000000 161.51100000 157.32600000
O 159.42000000 163.60500000 159.42000000
O 157.32600000 161.51100000 159.42000000
O 157.32600000 163.60500000 157.32600000
Ni 157.32600000 161.51100000 161.51100000
Ni 157.32600000 163.60500000 163.60500000
Ni 159.42000000 161.51100000 163.60500000
Ni 159.42000000 163.60500000 161.51100000
O 159.42000000 161.51100000 161.51100000
O 159.42000000 163.60500000 163.60500000
O 157.32600000 161.51100000 163.60500000
O 157.32600000 163.60500000 161.51100000
Ni 157.32600000 161.51100000 165.69900000
Ni 157.32600000 163.60500000 167.79300000
Ni 159.42000000 161.51100000 167.79300000
Ni 159.42000000 163.60500000 165.69900000
O 159.42000000 161.51100000 165.69900000
O 159.42000000 163.60500000 167.79300000
O 157.32600000 161.51100000 167.79300000
O 157.32600000 163.60500000 165.69900000
Ni 157.32600000 161.51100000 169.88400000
Ni 157.32600000 163.60500000 171.97800000
Ni 159.42000000 161.51100000 171.97800000
Ni 159.42000000 163.60500000 169.88400000
O 159.42000000 161.51100000 169.88400000
O 159.42000000 163.60500000 171.97800000
O 157.32600000 161.51100000 171.97800000
O 157.32600000 163.60500000 169.88400000
Ni 157.32600000 161.51100000 174.07200000
Ni 159.42000000 163.60500000 174.07200000
O 159.42000000 161.51100000 174.07200000
O 157.32600000 161.51100000 176.16300000
O 157.32600000 163.60500000 174.07200000
O 157.32600000 165.69900000 125.92800000
Ni 157.32600000 165.69900000 128.02200000
Ni 157.32600000 167.79300000 130.11600000
Ni 159.42000000 165.69900000 130.11600000
Ni 159.42000000 167.79300000 128.02200000
O 159.42000000 165.69900000 128.02200000
O 159.42000000 167.79300000 130.11600000
O 157.32600000 165.69900000 130.11600000
O 157.32600000 167.79300000 128.02200000
Ni 157.32600000 165.69900000 132.20700000
Ni 157.32600000 167.79300000 134.30100000
Ni 159.42000000 165.69900000 134.30100000
Ni 159.42000000 167.79300000 132.20700000
O 159.42000000 165.69900000 132.20700000
O 159.42000000 167.79300000 134.30100000
O 157.32600000 165.69900000 134.30100000
O 157.32600000 167.79300000 132.20700000
Ni 157.32600000 165.69900000 136.39500000
Ni 157.32600000 167.79300000 138.48900000
Ni 159.42000000 165.69900000 138.48900000
Ni 159.42000000 167.79300000 136.39500000
O 159.42000000 165.69900000 136.39500000
O 159.42000000 167.79300000 138.48900000
O 157.32600000 165.69900000 138.48900000
O 157.32600000 167.79300000 136.39500000
Ni 157.32600000 165.69900000 140.58000000
Ni 157.32600000 167.79300000 142.67400000
Ni 159.42000000 165.69900000 142.67400000
Ni 159.42000000 167.79300000 140.58000000
O 159.42000000 165.69900000 140.58000000
O 159.42000000 167.79300000 142.67400000
O 157.32600000 165.69900000 142.67400000
O 157.32600000 167.79300000 140.58000000
Ni 157.32600000 165.69900000 144.76800000
Ni 157.32600000 167.79300000 146.85900000
Ni 159.42000000 165.69900000 146.85900000
Ni 159.42000000 167.79300000 144.76800000
O 159.42000000 165.69900000 144.76800000
O 159.42000000 167.79300000 146.85900000
O 157.32600000 165.69900000 146.85900000
O 157.32600000 167.79300000 144.76800000
Ni 157.32600000 165.69900000 148.95300000
Ni 157.32600000 167.79300000 151.04700000
Ni 159.42000000 165.69900000 151.04700000
Ni 159.42000000 167.79300000 148.95300000
O 159.42000000 165.69900000 148.95300000
O 159.42000000 167.79300000 151.04700000
O 157.32600000 165.69900000 151.04700000
O 157.32600000 167.79300000 148.95300000
Ni 157.32600000 165.69900000 153.14100000
Ni 157.32600000 167.79300000 155.23200000
Ni 159.42000000 165.69900000 155.23200000
Ni 159.42000000 167.79300000 153.14100000
O 159.42000000 165.69900000 153.14100000
O 159.42000000 167.79300000 155.23200000
O 157.32600000 165.69900000 155.23200000
O 157.32600000 167.79300000 153.14100000
Ni 157.32600000 165.69900000 157.32600000
Ni 157.32600000 167.79300000 159.42000000
Ni 159.42000000 165.69900000 159.42000000
Ni 159.42000000 167.79300000 157.32600000
O 159.42000000 165.69900000 157.32600000
O 159.42000000 167.79300000 159.42000000
O 157.32600000 165.69900000 159.42000000
O 157.32600000 167.79300000 157.32600000
Ni 157.32600000 165.69900000 161.51100000
Ni 157.32600000 167.79300000 163.60500000
Ni 159.42000000 165.69900000 163.60500000
Ni 159.42000000 167.79300000 161.51100000
O 159.42000000 165.69900000 161.51100000
O 159.42000000 167.79300000 163.60500000
O 157.32600000 165.69900000 163.60500000
O 157.32600000 167.79300000 161.51100000
Ni 157.32600000 165.69900000 165.69900000
Ni 157.32600000 167.79300000 167.79300000
Ni 159.42000000 165.69900000 167.79300000
Ni 159.42000000 167.79300000 165.69900000
O 159.42000000 165.69900000 165.69900000
O 159.42000000 167.79300000 167.79300000
O 157.32600000 165.69900000 167.79300000
O 157.32600000 167.79300000 165.69900000
Ni 157.32600000 165.69900000 169.88400000
Ni 157.32600000 167.79300000 171.97800000
Ni 159.42000000 165.69900000 171.97800000
Ni 159.42000000 167.79300000 169.88400000
O 159.42000000 165.69900000 169.88400000
O 159.42000000 167.79300000 171.97800000
O 157.32600000 165.69900000 171.97800000
O 157.32600000 167.79300000 169.88400000
Ni 157.32600000 165.69900000 174.07200000
Ni 159.42000000 169.88400000 130.11600000
O 157.32600000 169.88400000 130.11600000
Ni 157.32600000 169.88400000 132.20700000
Ni 157.32600000 171.97800000 134.30100000
Ni 159.42000000 169.88400000 134.30100000
Ni 159.42000000 171.97800000 132.20700000
O 159.42000000 169.88400000 132.20700000
O 159.42000000 171.97800000 134.30100000
O 157.32600000 169.88400000 134.30100000
O 157.32600000 171.97800000 132.20700000
Ni 157.32600000 169.88400000 136.39500000
Ni 157.32600000 171.97800000 138.48900000
Ni 159.42000000 169.88400000 138.48900000
Ni 159.42000000 171.97800000 136.39500000
O 159.42000000 169.88400000 136.39500000
O 159.42000000 171.97800000 138.48900000
O 157.32600000 169.88400000 138.48900000
O 157.32600000 171.97800000 136.39500000
Ni 157.32600000 169.88400000 140.58000000
Ni 157.32600000 171.97800000 142.67400000
Ni 159.42000000 169.88400000 142.67400000
Ni 159.42000000 171.97800000 140.58000000
O 159.42000000 169.88400000 140.58000000
O 159.42000000 171.97800000 142.67400000
O 157.32600000 169.88400000 142.67400000
O 157.32600000 171.97800000 140.58000000
Ni 157.32600000 169.88400000 144.76800000
Ni 157.32600000 171.97800000 146.85900000
Ni 159.42000000 169.88400000 146.85900000
Ni 159.42000000 171.97800000 144.76800000
O 159.42000000 169.88400000 144.76800000
O 159.42000000 171.97800000 146.85900000
O 157.32600000 169.88400000 146.85900000
O 157.32600000 171.97800000 144.76800000
Ni 157.32600000 169.88400000 148.95300000
Ni 157.32600000 171.97800000 151.04700000
Ni 159.42000000 169.88400000 151.04700000
Ni 159.42000000 171.97800000 148.95300000
O 159.42000000 169.88400000 148.95300000
O 159.42000000 171.97800000 151.04700000
O 157.32600000 169.88400000 151.04700000
O 157.32600000 171.97800000 148.95300000
Ni 157.32600000 169.88400000 153.14100000
Ni 157.32600000 171.97800000 155.23200000
Ni 159.42000000 169.88400000 155.23200000
Ni 159.42000000 171.97800000 153.14100000
O 159.42000000 169.88400000 153.14100000
O 159.42000000 171.97800000 155.23200000
O 157.32600000 169.88400000 155.23200000
O 157.32600000 171.97800000 153.14100000
Ni 157.32600000 169.88400000 157.32600000
Ni 157.32600000 171.97800000 159.42000000
Ni 159.42000000 169.88400000 159.42000000
Ni 159.42000000 171.97800000 157.32600000
O 159.42000000 169.88400000 157.32600000
O 159.42000000 171.97800000 159.42000000
O 157.32600000 169.88400000 159.42000000
O 157.32600000 171.97800000 157.32600000
Ni 157.32600000 169.88400000 161.51100000
Ni 157.32600000 171.97800000 163.60500000
Ni 159.42000000 169.88400000 163.60500000
Ni 159.42000000 171.97800000 161.51100000
O 159.42000000 169.88400000 161.51100000
O 159.42000000 171.97800000 163.60500000
O 157.32600000 169.88400000 163.60500000
O 157.32600000 171.97800000 161.51100000
Ni 157.32600000 169.88400000 165.69900000
Ni 157.32600000 171.97800000 167.79300000
Ni 159.42000000 169.88400000 167.79300000
Ni 159.42000000 171.97800000 165.69900000
O 159.42000000 169.88400000 165.69900000
O 159.42000000 171.97800000 167.79300000
O 157.32600000 169.88400000 167.79300000
O 157.32600000 171.97800000 165.69900000
Ni 157.32600000 169.88400000 169.88400000
O 159.42000000 169.88400000 169.88400000
O 157.32600000 174.07200000 134.30100000
Ni 157.32600000 174.07200000 136.39500000
Ni 157.32600000 176.16300000 138.48900000
Ni 159.42000000 174.07200000 138.48900000
O 159.42000000 174.07200000 136.39500000
O 157.32600000 174.07200000 138.48900000
Ni 157.32600000 174.07200000 140.58000000
Ni 157.32600000 176.16300000 142.67400000
Ni 159.42000000 174.07200000 142.67400000
Ni 159.42000000 176.16300000 140.58000000
O 159.42000000 174.07200000 140.58000000
O 159.42000000 176.16300000 142.67400000
O 157.32600000 174.07200000 142.67400000
O 157.32600000 176.16300000 140.58000000
Ni 157.32600000 174.07200000 144.76800000
Ni 157.32600000 176.16300000 146.85900000
Ni 159.42000000 174.07200000 146.85900000
Ni 159.42000000 176.16300000 144.76800000
O 159.42000000 174.07200000 144.76800000
O 159.42000000 176.16300000 146.85900000
O 157.32600000 174.07200000 146.85900000
O 157.32600000 176.16300000 144.76800000
Ni 157.32600000 174.07200000 148.95300000
Ni 157.32600000 176.16300000 151.04700000
Ni 159.42000000 174.07200000 151.04700000
Ni 159.42000000 176.16300000 148.95300000
O 159.42000000 174.07200000 148.95300000
O 159.42000000 176.16300000 151.04700000
O 157.32600000 174.07200000 151.04700000
O 157.32600000 176.16300000 148.95300000
Ni 157.32600000 174.07200000 153.14100000
Ni 157.32600000 176.16300000 155.23200000
Ni 159.42000000 174.07200000 155.23200000
Ni 159.42000000 176.16300000 153.14100000
O 159.42000000 174.07200000 153.14100000
O 159.42000000 176.16300000 155.23200000
O 157.32600000 174.07200000 155.23200000
O 157.32600000 176.16300000 153.14100000
Ni 157.32600000 174.07200000 157.32600000
Ni 157.32600000 176.16300000 159.42000000
Ni 159.42000000 174.07200000 159.42000000
Ni 159.42000000 176.16300000 157.32600000
O 159.42000000 174.07200000 157.32600000
O 159.42000000 176.16300000 159.42000000
O 157.32600000 174.07200000 159.42000000
O 157.32600000 176.16300000 157.32600000
Ni 157.32600000 174.07200000 161.51100000
Ni 159.42000000 174.07200000 163.60500000
O 159.42000000 174.07200000 161.51100000
O 157.32600000 174.07200000 163.60500000
O 157.32600000 176.16300000 161.51100000
Ni 157.32600000 174.07200000 165.69900000
Ni 157.32600000 178.25700000 144.76800000
Ni 159.42000000 178.25700000 146.85900000
O 157.32600000 178.25700000 146.85900000
Ni 157.32600000 178.25700000 148.95300000
Ni 159.42000000 178.25700000 151.04700000
O 159.42000000 178.25700000 148.95300000
O 157.32600000 178.25700000 151.04700000
Ni 157.32600000 178.25700000 153.14100000
O 159.42000000 178.25700000 153.14100000
O 157.32600000 178.25700000 155.23200000
Ni 161.51100000 125.92800000 138.48900000
O 163.60500000 125.92800000 138.48900000
O 161.51100000 125.92800000 136.39500000
Ni 161.51100000 125.92800000 142.67400000
Ni 163.60500000 125.92800000 140.58000000
O 163.60500000 125.92800000 142.67400000
O 161.51100000 123.83700000 142.67400000
O 161.51100000 125.92800000 140.58000000
Ni 161.51100000 123.83700000 144.76800000
Ni 161.51100000 125.92800000 146.85900000
Ni 163.60500000 123.83700000 146.85900000
Ni 163.60500000 125.92800000 144.76800000
O 163.60500000 123.83700000 144.76800000
O 163.60500000 125.92800000 146.85900000
O 161.51100000 123.83700000 146.85900000
O 161.51100000 125.92800000 144.76800000
Ni 161.51100000 123.83700000 148.95300000
Ni 161.51100000 125.92800000 151.04700000
Ni 163.60500000 123.83700000 151.04700000
Ni 163.60500000 125.92800000 148.95300000
O 163.60500000 123.83700000 148.95300000
O 163.60500000 125.92800000 151.04700000
O 161.51100000 123.83700000 151.04700000
O 161.51100000 125.92800000 148.95300000
Ni 161.51100000 123.83700000 153.14100000
Ni 161.51100000 125.92800000 155.23200000
Ni 163.60500000 123.83700000 155.23200000
Ni 163.60500000 125.92800000 153.14100000
O 163.60500000 123.83700000 153.14100000
O 163.60500000 125.92800000 155.23200000
O 161.51100000 123.83700000 155.23200000
O 161.51100000 125.92800000 153.14100000
Ni 161.51100000 123.83700000 157.32600000
Ni 161.51100000 125.92800000 159.42000000
Ni 163.60500000 125.92800000 157.32600000
O 163.60500000 125.92800000 159.42000000
O 161.51100000 125.92800000 157.32600000
Ni 161.51100000 125.92800000 163.60500000
Ni 163.60500000 125.92800000 161.51100000
O 161.51100000 125.92800000 161.51100000
Ni 161.51100000 130.11600000 134.30100000
Ni 163.60500000 130.11600000 132.20700000
O 163.60500000 130.11600000 134.30100000
O 161.51100000 128.02200000 134.30100000
O 161.51100000 130.11600000 132.20700000
Ni 161.51100000 128.02200000 136.39500000
Ni 161.51100000 130.11600000 138.48900000
Ni 163.60500000 128.02200000 138.48900000
Ni 163.60500000 130.11600000 136.39500000
O 163.60500000 128.02200000 136.39500000
O 163.60500000 130.11600000 138.48900000
O 161.51100000 128.02200000 138.48900000
O 161.51100000 130.11600000 136.39500000
Ni 161.51100000 128.02200000 140.58000000
Ni 161.51100000 130.11600000 142.67400000
Ni 163.60500000 128.02200000 142.67400000
Ni 163.60500000 130.11600000 140.58000000
O 163.60500000 128.02200000 140.58000000
O 163.60500000 130.11600000 142.67400000
O 161.51100000 128.02200000 142.67400000
O 161.51100000 130.11600000 140.58000000
Ni 161.51100000 128.02200000 144.76800000
Ni 161.51100000 130.11600000 146.85900000
Ni 163.60500000 128.02200000 146.85900000
Ni 163.60500000 130.11600000 144.76800000
O 163.60500000 128.02200000 144.76800000
O 163.60500000 130.11600000 146.85900000
O 161.51100000 128.02200000 146.85900000
O 161.51100000 130.11600000 144.76800000
Ni 161.51100000 128.02200000 148.95300000
Ni 161.51100000 130.11600000 151.04700000
Ni 163.60500000 128.02200000 151.04700000
Ni 163.60500000 130.11600000 148.95300000
O 163.60500000 128.02200000 148.95300000
O 163.60500000 130.11600000 151.04700000
O 161.51100000 128.02200000 151.04700000
O 161.51100000 130.11600000 148.95300000
Ni 161.51100000 128.02200000 153.14100000
Ni 161.51100000 130.11600000 155.23200000
Ni 163.60500000 128.02200000 155.23200000
Ni 163.60500000 130.11600000 153.14100000
O 163.60500000 128.02200000 153.14100000
O 163.60500000 130.11600000 155.23200000
O 161.51100000 128.02200000 155.23200000
O 161.51100000 130.11600000 153.14100000
Ni 161.51100000 128.02200000 157.32600000
Ni 161.51100000 130.11600000 159.42000000
Ni 163.60500000 128.02200000 159.42000000
Ni 163.60500000 130.11600000 157.32600000
O 163.60500000 128.02200000 157.32600000
O 163.60500000 130.11600000 159.42000000
O 161.51100000 128.02200000 159.42000000
O 161.51100000 130.11600000 157.32600000
Ni 161.51100000 128.02200000 161.51100000
Ni 161.51100000 130.11600000 163.60500000
Ni 163.60500000 128.02200000 163.60500000
Ni 163.60500000 130.11600000 161.51100000
O 163.60500000 128.02200000 161.51100000
O 163.60500000 130.11600000 163.60500000
O 161.51100000 128.02200000 163.60500000
O 161.51100000 130.11600000 161.51100000
Ni 161.51100000 128.02200000 165.69900000
Ni 161.51100000 130.11600000 167.79300000
Ni 163.60500000 130.11600000 165.69900000
O 163.60500000 130.11600000 167.79300000
O 161.51100000 130.11600000 165.69900000
Ni 161.51100000 134.30100000 130.11600000
Ni 163.60500000 132.20700000 130.11600000
O 163.60500000 134.30100000 130.11600000
O 161.51100000 132.20700000 130.11600000
O 161.51100000 134.30100000 128.02200000
Ni 161.51100000 132.20700000 132.20700000
Ni 161.51100000 134.30100000 134.30100000
Ni 163.60500000 132.20700000 134.30100000
Ni 163.60500000 134.30100000 132.20700000
O 163.60500000 132.20700000 132.20700000
O 163.60500000 134.30100000 134.30100000
O 161.51100000 132.20700000 134.30100000
O 161.51100000 134.30100000 132.20700000
Ni 161.51100000 132.20700000 136.39500000
Ni 161.51100000 134.30100000 138.48900000
Ni 163.60500000 132.20700000 138.48900000
Ni 163.60500000 134.30100000 136.39500000
O 163.60500000 132.20700000 136.39500000
O 163.60500000 134.30100000 138.48900000
O 161.51100000 132.20700000 138.48900000
O 161.51100000 134.30100000 136.39500000
Ni 161.51100000 132.20700000 140.58000000
Ni 161.51100000 134.30100000 142.67400000
Ni 163.60500000 132.20700000 142.67400000
Ni 163.60500000 134.30100000 140.58000000
O 163.60500000 132.20700000 140.58000000
O 163.60500000 134.30100000 142.67400000
O 161.51100000 132.20700000 142.67400000
O 161.51100000 134.30100000 140.58000000
Ni 161.51100000 132.20700000 144.76800000
Ni 161.51100000 134.30100000 146.85900000
Ni 163.60500000 132.20700000 146.85900000
Ni 163.60500000 134.30100000 144.76800000
O 163.60500000 132.20700000 144.76800000
O 163.60500000 134.30100000 146.85900000
O 161.51100000 132.20700000 146.85900000
O 161.51100000 134.30100000 144.76800000
Ni 161.51100000 132.20700000 148.95300000
Ni 161.51100000 134.30100000 151.04700000
Ni 163.60500000 132.20700000 151.04700000
Ni 163.60500000 134.30100000 148.95300000
O 163.60500000 132.20700000 148.95300000
O 163.60500000 134.30100000 151.04700000
O 161.51100000 132.20700000 151.04700000
O 161.51100000 134.30100000 148.95300000
Ni 161.51100000 132.20700000 153.14100000
Ni 161.51100000 134.30100000 155.23200000
Ni 163.60500000 132.20700000 155.23200000
Ni 163.60500000 134.30100000 153.14100000
O 163.60500000 132.20700000 153.14100000
O 163.60500000 134.30100000 155.23200000
O 161.51100000 132.20700000 155.23200000
O 161.51100000 134.30100000 153.14100000
Ni 161.51100000 132.20700000 157.32600000
Ni 161.51100000 134.30100000 159.42000000
Ni 163.60500000 132.20700000 159.42000000
Ni 163.60500000 134.30100000 157.32600000
O 163.60500000 132.20700000 157.32600000
O 163.60500000 134.30100000 159.42000000
O 161.51100000 132.20700000 159.42000000
O 161.51100000 134.30100000 157.32600000
Ni 161.51100000 132.20700000 161.51100000
Ni 161.51100000 134.30100000 163.60500000
Ni 163.60500000 132.20700000 163.60500000
Ni 163.60500000 134.30100000 161.51100000
O 163.60500000 132.20700000 161.51100000
O 163.60500000 134.30100000 163.60500000
O 161.51100000 132.20700000 163.60500000
O 161.51100000 134.30100000 161.51100000
Ni 161.51100000 132.20700000 165.69900000
Ni 161.51100000 134.30100000 167.79300000
Ni 163.60500000 132.20700000 167.79300000
Ni 163.60500000 134.30100000 165.69900000
O 163.60500000 132.20700000 165.69900000
O 163.60500000 134.30100000 167.79300000
O 161.51100000 132.20700000 167.79300000
O 161.51100000 134.30100000 165.69900000
Ni 161.51100000 132.20700000 169.88400000
Ni 161.51100000 134.30100000 171.97800000
Ni 163.60500000 134.30100000 169.88400000
O 163.60500000 132.20700000 169.88400000
O 161.51100000 134.30100000 169.88400000
Ni 161.51100000 138.48900000 125.92800000
O 163.60500000 138.48900000 125.92800000
O 161.51100000 136.39500000 125.92800000
Ni 161.51100000 136.39500000 128.02200000
Ni 161.51100000 138.48900000 130.11600000
Ni 163.60500000 136.39500000 130.11600000
Ni 163.60500000 138.48900000 128.02200000
O 163.60500000 136.39500000 128.02200000
O 163.60500000 138.48900000 130.11600000
O 161.51100000 136.39500000 130.11600000
O 161.51100000 138.48900000 128.02200000
Ni 161.51100000 136.39500000 132.20700000
Ni 161.51100000 138.48900000 134.30100000
Ni 163.60500000 136.39500000 134.30100000
Ni 163.60500000 138.48900000 132.20700000
O 163.60500000 136.39500000 132.20700000
O 163.60500000 138.48900000 134.30100000
O 161.51100000 136.39500000 134.30100000
O 161.51100000 138.48900000 132.20700000
Ni 161.51100000 136.39500000 136.39500000
Ni 161.51100000 138.48900000 138.48900000
Ni 163.60500000 136.39500000 138.48900000
Ni 163.60500000 138.48900000 136.39500000
O 163.60500000 136.39500000 136.39500000
O 163.60500000 138.48900000 138.48900000
O 161.51100000 136.39500000 138.48900000
O 161.51100000 138.48900000 136.39500000
Ni 161.51100000 136.39500000 140.58000000
Ni 161.51100000 138.48900000 142.67400000
Ni 163.60500000 136.39500000 142.67400000
Ni 163.60500000 138.48900000 140.58000000
O 163.60500000 136.39500000 140.58000000
O 163.60500000 138.48900000 142.67400000
O 161.51100000 136.39500000 142.67400000
O 161.51100000 138.48900000 140.58000000
Ni 161.51100000 136.39500000 144.76800000
Ni 161.51100000 138.48900000 146.85900000
Ni 163.60500000 136.39500000 146.85900000
Ni 163.60500000 138.48900000 144.76800000
O 163.60500000 136.39500000 144.76800000
O 163.60500000 138.48900000 146.85900000
O 161.51100000 136.39500000 146.85900000
O 161.51100000 138.48900000 144.76800000
Ni 161.51100000 136.39500000 148.95300000
Ni 161.51100000 138.48900000 151.04700000
Ni 163.60500000 136.39500000 151.04700000
Ni 163.60500000 138.48900000 148.95300000
O 163.60500000 136.39500000 148.95300000
O 163.60500000 138.48900000 151.04700000
O 161.51100000 136.39500000 151.04700000
O 161.51100000 138.48900000 148.95300000
Ni 161.51100000 136.39500000 153.14100000
Ni 161.51100000 138.48900000 155.23200000
Ni 163.60500000 136.39500000 155.23200000
Ni 163.60500000 138.48900000 153.14100000
O 163.60500000 136.39500000 153.14100000
O 163.60500000 138.48900000 155.23200000
O 161.51100000 136.39500000 155.23200000
O 161.51100000 138.48900000 153.14100000
Ni 161.51100000 136.39500000 157.32600000
Ni 161.51100000 138.48900000 159.42000000
Ni 163.60500000 136.39500000 159.42000000
Ni 163.60500000 138.48900000 157.32600000
O 163.60500000 136.39500000 157.32600000
O 163.60500000 138.48900000 159.42000000
O 161.51100000 136.39500000 159.42000000
O 161.51100000 138.48900000 157.32600000
Ni 161.51100000 136.39500000 161.51100000
Ni 161.51100000 138.48900000 163.60500000
Ni 163.60500000 136.39500000 163.60500000
Ni 163.60500000 138.48900000 161.51100000
O 163.60500000 136.39500000 161.51100000
O 163.60500000 138.48900000 163.60500000
O 161.51100000 136.39500000 163.60500000
O 161.51100000 138.48900000 161.51100000
Ni 161.51100000 136.39500000 165.69900000
Ni 161.51100000 138.48900000 167.79300000
Ni 163.60500000 136.39500000 167.79300000
Ni 163.60500000 138.48900000 165.69900000
O 163.60500000 136.39500000 165.69900000
O 163.60500000 138.48900000 167.79300000
O 161.51100000 136.39500000 167.79300000
O 161.51100000 138.48900000 165.69900000
Ni 161.51100000 136.39500000 169.88400000
Ni 161.51100000 138.48900000 171.97800000
Ni 163.60500000 136.39500000 171.97800000
Ni 163.60500000 138.48900000 169.88400000
O 163.60500000 136.39500000 169.88400000
O 163.60500000 138.48900000 171.97800000
O 161.51100000 136.39500000 171.97800000
O 161.51100000 138.48900000 169.88400000
Ni 161.51100000 136.39500000 174.07200000
Ni 163.60500000 138.48900000 174.07200000
O 161.51100000 138.48900000 174.07200000
Ni 161.51100000 142.67400000 125.92800000
Ni 163.60500000 140.58000000 125.92800000
O 163.60500000 142.67400000 125.92800000
O 161.51100000 140.58000000 125.92800000
O 161.51100000 142.67400000 123.83700000
Ni 161.51100000 140.58000000 128.02200000
Ni 161.51100000 142.67400000 130.11600000
Ni 163.60500000 140.58000000 130.11600000
Ni 163.60500000 142.67400000 128.02200000
O 163.60500000 140.58000000 128.02200000
O 163.60500000 142.67400000 130.11600000
O 161.51100000 140.58000000 130.11600000
O 161.51100000 142.67400000 128.02200000
Ni 161.51100000 140.58000000 132.20700000
Ni 161.51100000 142.67400000 134.30100000
Ni 163.60500000 140.58000000 134.30100000
Ni 163.60500000 142.67400000 132.20700000
O 163.60500000 140.58000000 132.20700000
O 163.60500000 142.67400000 134.30100000
O 161.51100000 140.58000000 134.30100000
O 161.51100000 142.67400000 132.20700000
Ni 161.51100000 140.58000000 136.39500000
Ni 161.51100000 142.67400000 138.48900000
Ni 163.60500000 140.58000000 138.48900000
Ni 163.60500000 142.67400000 136.39500000
O 163.60500000 140.58000000 136.39500000
O 163.60500000 142.67400000 138.48900000
O 161.51100000 140.58000000 138.48900000
O 161.51100000 142.67400000 136.39500000
Ni 161.51100000 140.58000000 140.58000000
Ni 161.51100000 142.67400000 142.67400000
Ni 163.60500000 140.58000000 142.67400000
Ni 163.60500000 142.67400000 140.58000000
O 163.60500000 140.58000000 140.58000000
O 163.60500000 142.67400000 142.67400000
O 161.51100000 140.58000000 142.67400000
O 161.51100000 142.67400000 140.58000000
Ni 161.51100000 140.58000000 144.76800000
Ni 161.51100000 142.67400000 146.85900000
Ni 163.60500000 140.58000000 146.85900000
Ni 163.60500000 142.67400000 144.76800000
O 163.60500000 140.58000000 144.76800000
O 163.60500000 142.67400000 146.85900000
O 161.51100000 140.58000000 146.85900000
O 161.51100000 142.67400000 144.76800000
Ni 161.51100000 140.58000000 148.95300000
Ni 161.51100000 142.67400000 151.04700000
Ni 163.60500000 140.58000000 151.04700000
Ni 163.60500000 142.67400000 148.95300000
O 163.60500000 140.58000000 148.95300000
O 163.60500000 142.67400000 151.04700000
O 161.51100000 140.58000000 151.04700000
O 161.51100000 142.67400000 148.95300000
Ni 161.51100000 140.58000000 153.14100000
Ni 161.51100000 142.67400000 155.23200000
Ni 163.60500000 140.58000000 155.23200000
Ni 163.60500000 142.67400000 153.14100000
O 163.60500000 140.58000000 153.14100000
O 163.60500000 142.67400000 155.23200000
O 161.51100000 140.58000000 155.23200000
O 161.51100000 142.67400000 153.14100000
Ni 161.51100000 140.58000000 157.32600000
Ni 161.51100000 142.67400000 159.42000000
Ni 163.60500000 140.58000000 159.42000000
Ni 163.60500000 142.67400000 157.32600000
O 163.60500000 140.58000000 157.32600000
O 163.60500000 142.67400000 159.42000000
O 161.51100000 140.58000000 159.42000000
O 161.51100000 142.67400000 157.32600000
Ni 161.51100000 140.58000000 161.51100000
Ni 161.51100000 142.67400000 163.60500000
Ni 163.60500000 140.58000000 163.60500000
Ni 163.60500000 142.67400000 161.51100000
O 163.60500000 140.58000000 161.51100000
O 163.60500000 142.67400000 163.60500000
O 161.51100000 140.58000000 163.60500000
O 161.51100000 142.67400000 161.51100000
Ni 161.51100000 140.58000000 165.69900000
Ni 161.51100000 142.67400000 167.79300000
Ni 163.60500000 140.58000000 167.79300000
Ni 163.60500000 142.67400000 165.69900000
O 163.60500000 140.58000000 165.69900000
O 163.60500000 142.67400000 167.79300000
O 161.51100000 140.58000000 167.79300000
O 161.51100000 142.67400000 165.69900000
Ni 161.51100000 140.58000000 169.88400000
Ni 161.51100000 142.67400000 171.97800000
Ni 163.60500000 140.58000000 171.97800000
Ni 163.60500000 142.67400000 169.88400000
O 163.60500000 140.58000000 169.88400000
O 163.60500000 142.67400000 171.97800000
O 161.51100000 140.58000000 171.97800000
O 161.51100000 142.67400000 169.88400000
Ni 161.51100000 140.58000000 174.07200000
Ni 161.51100000 142.67400000 176.16300000
Ni 163.60500000 142.67400000 174.07200000
O 163.60500000 140.58000000 174.07200000
O 161.51100000 142.67400000 174.07200000
Ni 161.51100000 144.76800000 123.83700000
Ni 161.51100000 146.85900000 125.92800000
Ni 163.60500000 144.76800000 125.92800000
Ni 163.60500000 146.85900000 123.83700000
O 163.60500000 144.76800000 123.83700000
O 163.60500000 146.85900000 125.92800000
O 161.51100000 144.76800000 125.92800000
O 161.51100000 146.85900000 123.83700000
Ni 161.51100000 144.76800000 128.02200000
Ni 161.51100000 146.85900000 130.11600000
Ni 163.60500000 144.76800000 130.11600000
Ni 163.60500000 146.85900000 128.02200000
O 163.60500000 144.76800000 128.02200000
O 163.60500000 146.85900000 130.11600000
O 161.51100000 144.76800000 130.11600000
O 161.51100000 146.85900000 128.02200000
Ni 161.51100000 144.76800000 132.20700000
Ni 161.51100000 146.85900000 134.30100000
Ni 163.60500000 144.76800000 134.30100000
Ni 163.60500000 146.85900000 132.20700000
O 163.60500000 144.76800000 132.20700000
O 163.60500000 146.85900000 134.30100000
O 161.51100000 144.76800000 134.30100000
O 161.51100000 146.85900000 132.20700000
Ni 161.51100000 144.76800000 136.39500000
Ni 161.51100000 146.85900000 138.48900000
Ni 163.60500000 144.76800000 138.48900000
Ni 163.60500000 146.85900000 136.39500000
O 163.60500000 144.76800000 136.39500000
O 163.60500000 146.85900000 138.48900000
O 161.51100000 144.76800000 138.48900000
O 161.51100000 146.85900000 136.39500000
Ni 161.51100000 144.76800000 140.58000000
Ni 161.51100000 146.85900000 142.67400000
Ni 163.60500000 144.76800000 142.67400000
Ni 163.60500000 146.85900000 140.58000000
O 163.60500000 144.76800000 140.58000000
O 163.60500000 146.85900000 142.67400000
O 161.51100000 144.76800000 142.67400000
O 161.51100000 146.85900000 140.58000000
Ni 161.51100000 144.76800000 144.76800000
Ni 161.51100000 146.85900000 146.85900000
Ni 163.60500000 144.76800000 146.85900000
Ni 163.60500000 146.85900000 144.76800000
O 163.60500000 144.76800000 144.76800000
O 163.60500000 146.85900000 146.85900000
O 161.51100000 144.76800000 146.85900000
O 161.51100000 146.85900000 144.76800000
Ni 161.51100000 144.76800000 148.95300000
Ni 161.51100000 146.85900000 151.04700000
Ni 163.60500000 144.76800000 151.04700000
Ni 163.60500000 146.85900000 148.95300000
O 163.60500000 144.76800000 148.95300000
O 163.60500000 146.85900000 151.04700000
O 161.51100000 144.76800000 151.04700000
O 161.51100000 146.85900000 148.95300000
Ni 161.51100000 144.76800000 153.14100000
Ni 161.51100000 146.85900000 155.23200000
Ni 163.60500000 144.76800000 155.23200000
Ni 163.60500000 146.85900000 153.14100000
O 163.60500000 144.76800000 153.14100000
O 163.60500000 146.85900000 155.23200000
O 161.51100000 144.76800000 155.23200000
O 161.51100000 146.85900000 153.14100000
Ni 161.51100000 144.76800000 157.32600000
Ni 161.51100000 146.85900000 159.42000000
Ni 163.60500000 144.76800000 159.42000000
Ni 163.60500000 146.85900000 157.32600000
O 163.60500000 144.76800000 157.32600000
O 163.60500000 146.85900000 159.42000000
O 161.51100000 144.76800000 159.42000000
O 161.51100000 146.85900000 157.32600000
Ni 161.51100000 144.76800000 161.51100000
Ni 161.51100000 146.85900000 163.60500000
Ni 163.60500000 144.76800000 163.60500000
Ni 163.60500000 146.85900000 161.51100000
O 163.60500000 144.76800000 161.51100000
O 163.60500000 146.85900000 163.60500000
O 161.51100000 144.76800000 163.60500000
O 161.51100000 146.85900000 161.51100000
Ni 161.51100000 144.76800000 165.69900000
Ni 161.51100000 146.85900000 167.79300000
Ni 163.60500000 144.76800000 167.79300000
Ni 163.60500000 146.85900000 165.69900000
O 163.60500000 144.76800000 165.69900000
O 163.60500000 146.85900000 167.79300000
O 161.51100000 144.76800000 167.79300000
O 161.51100000 146.85900000 165.69900000
Ni 161.51100000 144.76800000 169.88400000
Ni 161.51100000 146.85900000 171.97800000
Ni 163.60500000 144.76800000 171.97800000
Ni 163.60500000 146.85900000 169.88400000
O 163.60500000 144.76800000 169.88400000
O 163.60500000 146.85900000 171.97800000
O 161.51100000 144.76800000 171.97800000
O 161.51100000 146.85900000 169.88400000
Ni 161.51100000 144.76800000 174.07200000
Ni 161.51100000 146.85900000 176.16300000
Ni 163.60500000 144.76800000 176.16300000
Ni 163.60500000 146.85900000 174.07200000
O 163.60500000 144.76800000 174.07200000
O 163.60500000 146.85900000 176.16300000
O 161.51100000 144.76800000 176.16300000
O 161.51100000 146.85900000 174.07200000
Ni 161.51100000 148.95300000 123.83700000
Ni 161.51100000 151.04700000 125.92800000
Ni 163.60500000 148.95300000 125.92800000
Ni 163.60500000 151.04700000 123.83700000
O 163.60500000 148.95300000 123.83700000
O 163.60500000 151.04700000 125.92800000
O 161.51100000 148.95300000 125.92800000
O 161.51100000 151.04700000 123.83700000
Ni 161.51100000 148.95300000 128.02200000
Ni 161.51100000 151.04700000 130.11600000
Ni 163.60500000 148.95300000 130.11600000
Ni 163.60500000 151.04700000 128.02200000
O 163.60500000 148.95300000 128.02200000
O 163.60500000 151.04700000 130.11600000
O 161.51100000 148.95300000 130.11600000
O 161.51100000 151.04700000 128.02200000
Ni 161.51100000 148.95300000 132.20700000
Ni 161.51100000 151.04700000 134.30100000
Ni 163.60500000 148.95300000 134.30100000
Ni 163.60500000 151.04700000 132.20700000
O 163.60500000 148.95300000 132.20700000
O 163.60500000 151.04700000 134.30100000
O 161.51100000 148.95300000 134.30100000
O 161.51100000 151.04700000 132.20700000
Ni 161.51100000 148.95300000 136.39500000
Ni 161.51100000 151.04700000 138.48900000
Ni 163.60500000 148.95300000 138.48900000
Ni 163.60500000 151.04700000 136.39500000
O 163.60500000 148.95300000 136.39500000
O 163.60500000 151.04700000 138.48900000
O 161.51100000 148.95300000 138.48900000
O 161.51100000 151.04700000 136.39500000
Ni 161.51100000 148.95300000 140.58000000
Ni 161.51100000 151.04700000 142.67400000
Ni 163.60500000 148.95300000 142.67400000
Ni 163.60500000 151.04700000 140.58000000
O 163.60500000 148.95300000 140.58000000
O 163.60500000 151.04700000 142.67400000
O 161.51100000 148.95300000 142.67400000
O 161.51100000 151.04700000 140.58000000
Ni 161.51100000 148.95300000 144.76800000
Ni 161.51100000 151.04700000 146.85900000
Ni 163.60500000 148.95300000 146.85900000
Ni 163.60500000 151.04700000 144.76800000
O 163.60500000 148.95300000 144.76800000
O 163.60500000 151.04700000 146.85900000
O 161.51100000 148.95300000 146.85900000
O 161.51100000 151.04700000 144.76800000
Ni 161.51100000 148.95300000 148.95300000
Ni 161.51100000 151.04700000 151.04700000
Ni 163.60500000 148.95300000 151.04700000
Ni 163.60500000 151.04700000 148.95300000
O 163.60500000 148.95300000 148.95300000
O 163.60500000 151.04700000 151.04700000
O 161.51100000 148.95300000 151.04700000
O 161.51100000 151.04700000 148.95300000
Ni 161.51100000 148.95300000 153.14100000
Ni 161.51100000 151.04700000 155.23200000
Ni 163.60500000 148.95300000 155.23200000
Ni 163.60500000 151.04700000 153.14100000
O 163.60500000 148.95300000 153.14100000
O 163.60500000 151.04700000 155.23200000
O 161.51100000 148.95300000 155.23200000
O 161.51100000 151.04700000 153.14100000
Ni 161.51100000 148.95300000 157.32600000
Ni 161.51100000 151.04700000 159.42000000
Ni 163.60500000 148.95300000 159.42000000
Ni 163.60500000 151.04700000 157.32600000
O 163.60500000 148.95300000 157.32600000
O 163.60500000 151.04700000 159.42000000
O 161.51100000 148.95300000 159.42000000
O 161.51100000 151.04700000 157.32600000
Ni 161.51100000 148.95300000 161.51100000
Ni 161.51100000 151.04700000 163.60500000
Ni 163.60500000 148.95300000 163.60500000
Ni 163.60500000 151.04700000 161.51100000
O 163.60500000 148.95300000 161.51100000
O 163.60500000 151.04700000 163.60500000
O 161.51100000 148.95300000 163.60500000
O 161.51100000 151.04700000 161.51100000
Ni 161.51100000 148.95300000 165.69900000
Ni 161.51100000 151.04700000 167.79300000
Ni 163.60500000 148.95300000 167.79300000
Ni 163.60500000 151.04700000 165.69900000
O 163.60500000 148.95300000 165.69900000
O 163.60500000 151.04700000 167.79300000
O 161.51100000 148.95300000 167.79300000
O 161.51100000 151.04700000 165.69900000
Ni 161.51100000 148.95300000 169.88400000
Ni 161.51100000 151.04700000 171.97800000
Ni 163.60500000 148.95300000 171.97800000
Ni 163.60500000 151.04700000 169.88400000
O 163.60500000 148.95300000 169.88400000
O 163.60500000 151.04700000 171.97800000
O 161.51100000 148.95300000 171.97800000
O 161.51100000 151.04700000 169.88400000
Ni 161.51100000 148.95300000 174.07200000
Ni 161.51100000 151.04700000 176.16300000
Ni 163.60500000 148.95300000 176.16300000
Ni 163.60500000 151.04700000 174.07200000
O 163.60500000 148.95300000 174.07200000
O 163.60500000 151.04700000 176.16300000
O 161.51100000 148.95300000 176.16300000
O 161.51100000 151.04700000 174.07200000
Ni 161.51100000 153.14100000 123.83700000
Ni 161.51100000 155.23200000 125.92800000
Ni 163.60500000 153.14100000 125.92800000
Ni 163.60500000 155.23200000 123.83700000
O 163.60500000 153.14100000 123.83700000
O 163.60500000 155.23200000 125.92800000
O 161.51100000 153.14100000 125.92800000
O 161.51100000 155.23200000 123.83700000
Ni 161.51100000 153.14100000 128.02200000
Ni 161.51100000 155.23200000 130.11600000
Ni 163.60500000 153.14100000 130.11600000
Ni 163.60500000 155.23200000 128.02200000
O 163.60500000 153.14100000 128.02200000
O 163.60500000 155.23200000 130.11600000
O 161.51100000 153.14100000 130.11600000
O 161.51100000 155.23200000 128.02200000
Ni 161.51100000 153.14100000 132.20700000
Ni 161.51100000 155.23200000 134.30100000
Ni 163.60500000 153.14100000 134.30100000
Ni 163.60500000 155.23200000 132.20700000
O 163.60500000 153.14100000 132.20700000
O 163.60500000 155.23200000 134.30100000
O 161.51100000 153.14100000 134.30100000
O 161.51100000 155.23200000 132.20700000
Ni 161.51100000 153.14100000 136.39500000
Ni 161.51100000 155.23200000 138.48900000
Ni 163.60500000 153.14100000 138.48900000
Ni 163.60500000 155.23200000 136.39500000
O 163.60500000 153.14100000 136.39500000
O 163.60500000 155.23200000 138.48900000
O 161.51100000 153.14100000 138.48900000
O 161.51100000 155.23200000 136.39500000
Ni 161.51100000 153.14100000 140.58000000
Ni 161.51100000 155.23200000 142.67400000
Ni 163.60500000 153.14100000 142.67400000
Ni 163.60500000 155.23200000 140.58000000
O 163.60500000 153.14100000 140.58000000
O 163.60500000 155.23200000 142.67400000
O 161.51100000 153.14100000 142.67400000
O 161.51100000 155.23200000 140.58000000
Ni 161.51100000 153.14100000 144.76800000
Ni 161.51100000 155.23200000 146.85900000
Ni 163.60500000 153.14100000 146.85900000
Ni 163.60500000 155.23200000 144.76800000
O 163.60500000 153.14100000 144.76800000
O 163.60500000 155.23200000 146.85900000
O 161.51100000 153.14100000 146.85900000
O 161.51100000 155.23200000 144.76800000
Ni 161.51100000 153.14100000 148.95300000
Ni 161.51100000 155.23200000 151.04700000
Ni 163.60500000 153.14100000 151.04700000
Ni 163.60500000 155.23200000 148.95300000
O 163.60500000 153.14100000 148.95300000
O 163.60500000 155.23200000 151.04700000
O 161.51100000 153.14100000 151.04700000
O 161.51100000 155.23200000 148.95300000
Ni 161.51100000 153.14100000 153.14100000
Ni 161.51100000 155.23200000 155.23200000
Ni 163.60500000 153.14100000 155.23200000
Ni 163.60500000 155.23200000 153.14100000
O 163.60500000 153.14100000 153.14100000
O 163.60500000 155.23200000 155.23200000
O 161.51100000 153.14100000 155.23200000
O 161.51100000 155.23200000 153.14100000
Ni 161.51100000 153.14100000 157.32600000
Ni 161.51100000 155.23200000 159.42000000
Ni 163.60500000 153.14100000 159.42000000
Ni 163.60500000 155.23200000 157.32600000
O 163.60500000 153.14100000 157.32600000
O 163.60500000 155.23200000 159.42000000
O 161.51100000 153.14100000 159.42000000
O 161.51100000 155.23200000 157.32600000
Ni 161.51100000 153.14100000 161.51100000
Ni 161.51100000 155.23200000 163.60500000
Ni 163.60500000 153.14100000 163.60500000
Ni 163.60500000 155.23200000 161.51100000
O 163.60500000 153.14100000 161.51100000
O 163.60500000 155.23200000 163.60500000
O 161.51100000 153.14100000 163.60500000
O 161.51100000 155.23200000 161.51100000
Ni 161.51100000 153.14100000 165.69900000
Ni 161.51100000 155.23200000 167.79300000
Ni 163.60500000 153.14100000 167.79300000
Ni 163.60500000 155.23200000 165.69900000
O 163.60500000 153.14100000 165.69900000
O 163.60500000 155.23200000 167.79300000
O 161.51100000 153.14100000 167.79300000
O 161.51100000 155.23200000 165.69900000
Ni 161.51100000 153.14100000 169.88400000
Ni 161.51100000 155.23200000 171.97800000
Ni 163.60500000 153.14100000 171.97800000
Ni 163.60500000 155.23200000 169.88400000
O 163.60500000 153.14100000 169.88400000
O 163.60500000 155.23200000 171.97800000
O 161.51100000 153.14100000 171.97800000
O 161.51100000 155.23200000 169.88400000
Ni 161.51100000 153.14100000 174.07200000
Ni 161.51100000 155.23200000 176.16300000
Ni 163.60500000 153.14100000 176.16300000
Ni 163.60500000 155.23200000 174.07200000
O 163.60500000 153.14100000 174.07200000
O 163.60500000 155.23200000 176.16300000
O 161.51100000 153.14100000 176.16300000
O 161.51100000 155.23200000 174.07200000
Ni 161.51100000 157.32600000 123.83700000
Ni 161.51100000 159.42000000 125.92800000
Ni 163.60500000 157.32600000 125.92800000
O 163.60500000 159.42000000 125.92800000
O 161.51100000 157.32600000 125.92800000
Ni 161.51100000 157.32600000 128.02200000
Ni 161.51100000 159.42000000 130.11600000
Ni 163.60500000 157.32600000 130.11600000
Ni 163.60500000 159.42000000 128.02200000
O 163.60500000 157.32600000 128.02200000
O 163.60500000 159.42000000 130.11600000
O 161.51100000 157.32600000 130.11600000
O 161.51100000 159.42000000 128.02200000
Ni 161.51100000 157.32600000 132.20700000
Ni 161.51100000 159.42000000 134.30100000
Ni 163.60500000 157.32600000 134.30100000
Ni 163.60500000 159.42000000 132.20700000
O 163.60500000 157.32600000 132.20700000
O 163.60500000 159.42000000 134.30100000
O 161.51100000 157.32600000 134.30100000
O 161.51100000 159.42000000 132.20700000
Ni 161.51100000 157.32600000 136.39500000
Ni 161.51100000 159.42000000 138.48900000
Ni 163.60500000 157.32600000 138.48900000
Ni 163.60500000 159.42000000 136.39500000
O 163.60500000 157.32600000 136.39500000
O 163.60500000 159.42000000 138.48900000
O 161.51100000 157.32600000 138.48900000
O 161.51100000 159.42000000 136.39500000
Ni 161.51100000 157.32600000 140.58000000
Ni 161.51100000 159.42000000 142.67400000
Ni 163.60500000 157.32600000 142.67400000
Ni 163.60500000 159.42000000 140.58000000
O 163.60500000 157.32600000 140.58000000
O 163.60500000 159.42000000 142.67400000
O 161.51100000 157.32600000 142.67400000
O 161.51100000 159.42000000 140.58000000
Ni 161.51100000 157.32600000 144.76800000
Ni 161.51100000 159.42000000 146.85900000
Ni 163.60500000 157.32600000 146.85900000
Ni 163.60500000 159.42000000 144.76800000
O 163.60500000 157.32600000 144.76800000
O 163.60500000 159.42000000 146.85900000
O 161.51100000 157.32600000 146.85900000
O 161.51100000 159.42000000 144.76800000
Ni 161.51100000 157.32600000 148.95300000
Ni 161.51100000 159.42000000 151.04700000
Ni 163.60500000 157.32600000 151.04700000
Ni 163.60500000 159.42000000 148.95300000
O 163.60500000 157.32600000 148.95300000
O 163.60500000 159.42000000 151.04700000
O 161.51100000 157.32600000 151.04700000
O 161.51100000 159.42000000 148.95300000
Ni 161.51100000 157.32600000 153.14100000
Ni 161.51100000 159.42000000 155.23200000
Ni 163.60500000 157.32600000 155.23200000
Ni 163.60500000 159.42000000 153.14100000
O 163.60500000 157.32600000 153.14100000
O 163.60500000 159.42000000 155.23200000
O 161.51100000 157.32600000 155.23200000
O 161.51100000 159.42000000 153.14100000
Ni 161.51100000 157.32600000 157.32600000
Ni 161.51100000 159.42000000 159.42000000
Ni 163.60500000 157.32600000 159.42000000
Ni 163.60500000 159.42000000 157.32600000
O 163.60500000 157.32600000 157.32600000
O 163.60500000 159.42000000 159.42000000
O 161.51100000 157.32600000 159.42000000
O 161.51100000 159.42000000 157.32600000
Ni 161.51100000 157.32600000 161.51100000
Ni 161.51100000 159.42000000 163.60500000
Ni 163.60500000 157.32600000 163.60500000
Ni 163.60500000 159.42000000 161.51100000
O 163.60500000 157.32600000 161.51100000
O 163.60500000 159.42000000 163.60500000
O 161.51100000 157.32600000 163.60500000
O 161.51100000 159.42000000 161.51100000
Ni 161.51100000 157.32600000 165.69900000
Ni 161.51100000 159.42000000 167.79300000
Ni 163.60500000 157.32600000 167.79300000
Ni 163.60500000 159.42000000 165.69900000
O 163.60500000 157.32600000 165.69900000
O 163.60500000 159.42000000 167.79300000
O 161.51100000 157.32600000 167.79300000
O 161.51100000 159.42000000 165.69900000
Ni 161.51100000 157.32600000 169.88400000
Ni 161.51100000 159.42000000 171.97800000
Ni 163.60500000 157.32600000 171.97800000
Ni 163.60500000 159.42000000 169.88400000
O 163.60500000 157.32600000 169.88400000
O 163.60500000 159.42000000 171.97800000
O 161.51100000 157.32600000 171.97800000
O 161.51100000 159.42000000 169.88400000
Ni 161.51100000 157.32600000 174.07200000
Ni 163.60500000 159.42000000 174.07200000
O 163.60500000 157.32600000 174.07200000
O 161.51100000 157.32600000 176.16300000
O 161.51100000 159.42000000 174.07200000
Ni 161.51100000 163.60500000 125.92800000
Ni 163.60500000 161.51100000 125.92800000
O 161.51100000 161.51100000 125.92800000
Ni 161.51100000 161.51100000 128.02200000
Ni 161.51100000 163.60500000 130.11600000
Ni 163.60500000 161.51100000 130.11600000
Ni 163.60500000 163.60500000 128.02200000
O 163.60500000 161.51100000 128.02200000
O 163.60500000 163.60500000 130.11600000
O 161.51100000 161.51100000 130.11600000
O 161.51100000 163.60500000 128.02200000
Ni 161.51100000 161.51100000 132.20700000
Ni 161.51100000 163.60500000 134.30100000
Ni 163.60500000 161.51100000 134.30100000
Ni 163.60500000 163.60500000 132.20700000
O 163.60500000 161.51100000 132.20700000
O 163.60500000 163.60500000 134.30100000
O 161.51100000 161.51100000 134.30100000
O 161.51100000 163.60500000 132.20700000
Ni 161.51100000 161.51100000 136.39500000
Ni 161.51100000 163.60500000 138.48900000
Ni 163.60500000 161.51100000 138.48900000
Ni 163.60500000 163.60500000 136.39500000
O 163.60500000 161.51100000 136.39500000
O 163.60500000 163.60500000 138.48900000
O 161.51100000 161.51100000 138.48900000
O 161.51100000 163.60500000 136.39500000
Ni 161.51100000 161.51100000 140.58000000
Ni 161.51100000 163.60500000 142.67400000
Ni 163.60500000 161.51100000 142.67400000
Ni 163.60500000 163.60500000 140.58000000
O 163.60500000 161.51100000 140.58000000
O 163.60500000 163.60500000 142.67400000
O 161.51100000 161.51100000 142.67400000
O 161.51100000 163.60500000 140.58000000
Ni 161.51100000 161.51100000 144.76800000
Ni 161.51100000 163.60500000 146.85900000
Ni 163.60500000 161.51100000 146.85900000
Ni 163.60500000 163.60500000 144.76800000
O 163.60500000 161.51100000 144.76800000
O 163.60500000 163.60500000 146.85900000
O 161.51100000 161.51100000 146.85900000
O 161.51100000 163.60500000 144.76800000
Ni 161.51100000 161.51100000 148.95300000
Ni 161.51100000 163.60500000 151.04700000
Ni 163.60500000 161.51100000 151.04700000
Ni 163.60500000 163.60500000 148.95300000
O 163.60500000 161.51100000 148.95300000
O 163.60500000 163.60500000 151.04700000
O 161.51100000 161.51100000 151.04700000
O 161.51100000 163.60500000 148.95300000
Ni 161.51100000 161.51100000 153.14100000
Ni 161.51100000 163.60500000 155.23200000
Ni 163.60500000 161.51100000 155.23200000
Ni 163.60500000 163.60500000 153.14100000
O 163.60500000 161.51100000 153.14100000
O 163.60500000 163.60500000 155.23200000
O 161.51100000 161.51100000 155.23200000
O 161.51100000 163.60500000 153.14100000
Ni 161.51100000 161.51100000 157.32600000
Ni 161.51100000 163.60500000 159.42000000
Ni 163.60500000 161.51100000 159.42000000
Ni 163.60500000 163.60500000 157.32600000
O 163.60500000 161.51100000 157.32600000
O 163.60500000 163.60500000 159.42000000
O 161.51100000 161.51100000 159.42000000
O 161.51100000 163.60500000 157.32600000
Ni 161.51100000 161.51100000 161.51100000
Ni 161.51100000 163.60500000 163.60500000
Ni 163.60500000 161.51100000 163.60500000
Ni 163.60500000 163.60500000 161.51100000
O 163.60500000 161.51100000 161.51100000
O 163.60500000 163.60500000 163.60500000
O 161.51100000 161.51100000 163.60500000
O 161.51100000 163.60500000 161.51100000
Ni 161.51100000 161.51100000 165.69900000
Ni 161.51100000 163.60500000 167.79300000
Ni 163.60500000 161.51100000 167.79300000
Ni 163.60500000 163.60500000 165.69900000
O 163.60500000 161.51100000 165.69900000
O 163.60500000 163.60500000 167.79300000
O 161.51100000 161.51100000 167.79300000
O 161.51100000 163.60500000 165.69900000
Ni 161.51100000 161.51100000 169.88400000
Ni 161.51100000 163.60500000 171.97800000
Ni 163.60500000 161.51100000 171.97800000
Ni 163.60500000 163.60500000 169.88400000
O 163.60500000 161.51100000 169.88400000
O 163.60500000 163.60500000 171.97800000
O 161.51100000 161.51100000 171.97800000
O 161.51100000 163.60500000 169.88400000
Ni 161.51100000 161.51100000 174.07200000
O 163.60500000 161.51100000 174.07200000
O 161.51100000 163.60500000 174.07200000
Ni 161.51100000 165.69900000 128.02200000
Ni 161.51100000 167.79300000 130.11600000
Ni 163.60500000 165.69900000 130.11600000
O 163.60500000 167.79300000 130.11600000
O 161.51100000 165.69900000 130.11600000
Ni 161.51100000 165.69900000 132.20700000
Ni 161.51100000 167.79300000 134.30100000
Ni 163.60500000 165.69900000 134.30100000
Ni 163.60500000 167.79300000 132.20700000
O 163.60500000 165.69900000 132.20700000
O 163.60500000 167.79300000 134.30100000
O 161.51100000 165.69900000 134.30100000
O 161.51100000 167.79300000 132.20700000
Ni 161.51100000 165.69900000 136.39500000
Ni 161.51100000 167.79300000 138.48900000
Ni 163.60500000 165.69900000 138.48900000
Ni 163.60500000 167.79300000 136.39500000
O 163.60500000 165.69900000 136.39500000
O 163.60500000 167.79300000 138.48900000
O 161.51100000 165.69900000 138.48900000
O 161.51100000 167.79300000 136.39500000
Ni 161.51100000 165.69900000 140.58000000
Ni 161.51100000 167.79300000 142.67400000
Ni 163.60500000 165.69900000 142.67400000
Ni 163.60500000 167.79300000 140.58000000
O 163.60500000 165.69900000 140.58000000
O 163.60500000 167.79300000 142.67400000
O 161.51100000 165.69900000 142.67400000
O 161.51100000 167.79300000 140.58000000
Ni 161.51100000 165.69900000 144.76800000
Ni 161.51100000 167.79300000 146.85900000
Ni 163.60500000 165.69900000 146.85900000
Ni 163.60500000 167.79300000 144.76800000
O 163.60500000 165.69900000 144.76800000
O 163.60500000 167.79300000 146.85900000
O 161.51100000 165.69900000 146.85900000
O 161.51100000 167.79300000 144.76800000
Ni 161.51100000 165.69900000 148.95300000
Ni 161.51100000 167.79300000 151.04700000
Ni 163.60500000 165.69900000 151.04700000
Ni 163.60500000 167.79300000 148.95300000
O 163.60500000 165.69900000 148.95300000
O 163.60500000 167.79300000 151.04700000
O 161.51100000 165.69900000 151.04700000
O 161.51100000 167.79300000 148.95300000
Ni 161.51100000 165.69900000 153.14100000
Ni 161.51100000 167.79300000 155.23200000
Ni 163.60500000 165.69900000 155.23200000
Ni 163.60500000 167.79300000 153.14100000
O 163.60500000 165.69900000 153.14100000
O 163.60500000 167.79300000 155.23200000
O 161.51100000 165.69900000 155.23200000
O 161.51100000 167.79300000 153.14100000
Ni 161.51100000 165.69900000 157.32600000
Ni 161.51100000 167.79300000 159.42000000
Ni 163.60500000 165.69900000 159.42000000
Ni 163.60500000 167.79300000 157.32600000
O 163.60500000 165.69900000 157.32600000
O 163.60500000 167.79300000 159.42000000
O 161.51100000 165.69900000 159.42000000
O 161.51100000 167.79300000 157.32600000
Ni 161.51100000 165.69900000 161.51100000
Ni 161.51100000 167.79300000 163.60500000
Ni 163.60500000 165.69900000 163.60500000
Ni 163.60500000 167.79300000 161.51100000
O 163.60500000 165.69900000 161.51100000
O 163.60500000 167.79300000 163.60500000
O 161.51100000 165.69900000 163.60500000
O 161.51100000 167.79300000 161.51100000
Ni 161.51100000 165.69900000 165.69900000
Ni 161.51100000 167.79300000 167.79300000
Ni 163.60500000 165.69900000 167.79300000
Ni 163.60500000 167.79300000 165.69900000
O 163.60500000 165.69900000 165.69900000
O 163.60500000 167.79300000 167.79300000
O 161.51100000 165.69900000 167.79300000
O 161.51100000 167.79300000 165.69900000
Ni 161.51100000 165.69900000 169.88400000
Ni 163.60500000 167.79300000 169.88400000
O 163.60500000 165.69900000 169.88400000
O 161.51100000 165.69900000 171.97800000
O 161.51100000 167.79300000 169.88400000
Ni 161.51100000 169.88400000 132.20700000
Ni 161.51100000 171.97800000 134.30100000
Ni 163.60500000 169.88400000 134.30100000
O 163.60500000 169.88400000 132.20700000
O 161.51100000 169.88400000 134.30100000
Ni 161.51100000 169.88400000 136.39500000
Ni 161.51100000 171.97800000 138.48900000
Ni 163.60500000 169.88400000 138.48900000
Ni 163.60500000 171.97800000 136.39500000
O 163.60500000 169.88400000 136.39500000
O 163.60500000 171.97800000 138.48900000
O 161.51100000 169.88400000 138.48900000
O 161.51100000 171.97800000 136.39500000
Ni 161.51100000 169.88400000 140.58000000
Ni 161.51100000 171.97800000 142.67400000
Ni 163.60500000 169.88400000 142.67400000
Ni 163.60500000 171.97800000 140.58000000
O 163.60500000 169.88400000 140.58000000
O 163.60500000 171.97800000 142.67400000
O 161.51100000 169.88400000 142.67400000
O 161.51100000 171.97800000 140.58000000
Ni 161.51100000 169.88400000 144.76800000
Ni 161.51100000 171.97800000 146.85900000
Ni 163.60500000 169.88400000 146.85900000
Ni 163.60500000 171.97800000 144.76800000
O 163.60500000 169.88400000 144.76800000
O 163.60500000 171.97800000 146.85900000
O 161.51100000 169.88400000 146.85900000
O 161.51100000 171.97800000 144.76800000
Ni 161.51100000 169.88400000 148.95300000
Ni 161.51100000 171.97800000 151.04700000
Ni 163.60500000 169.88400000 151.04700000
Ni 163.60500000 171.97800000 148.95300000
O 163.60500000 169.88400000 148.95300000
O 163.60500000 171.97800000 151.04700000
O 161.51100000 169.88400000 151.04700000
O 161.51100000 171.97800000 148.95300000
Ni 161.51100000 169.88400000 153.14100000
Ni 161.51100000 171.97800000 155.23200000
Ni 163.60500000 169.88400000 155.23200000
Ni 163.60500000 171.97800000 153.14100000
O 163.60500000 169.88400000 153.14100000
O 163.60500000 171.97800000 155.23200000
O 161.51100000 169.88400000 155.23200000
O 161.51100000 171.97800000 153.14100000
Ni 161.51100000 169.88400000 157.32600000
Ni 161.51100000 171.97800000 159.42000000
Ni 163.60500000 169.88400000 159.42000000
Ni 163.60500000 171.97800000 157.32600000
O 163.60500000 169.88400000 157.32600000
O 163.60500000 171.97800000 159.42000000
O 161.51100000 169.88400000 159.42000000
O 161.51100000 171.97800000 157.32600000
Ni 161.51100000 169.88400000 161.51100000
Ni 161.51100000 171.97800000 163.60500000
Ni 163.60500000 169.88400000 163.60500000
Ni 163.60500000 171.97800000 161.51100000
O 163.60500000 169.88400000 161.51100000
O 163.60500000 171.97800000 163.60500000
O 161.51100000 169.88400000 163.60500000
O 161.51100000 171.97800000 161.51100000
Ni 161.51100000 169.88400000 165.69900000
Ni 163.60500000 169.88400000 167.79300000
O 163.60500000 169.88400000 165.69900000
O 161.51100000 169.88400000 167.79300000
O 161.51100000 171.97800000 165.69900000
Ni 161.51100000 174.07200000 136.39500000
Ni 163.60500000 174.07200000 138.48900000
O 161.51100000 174.07200000 138.48900000
Ni 161.51100000 174.07200000 140.58000000
Ni 161.51100000 176.16300000 142.67400000
Ni 163.60500000 174.07200000 142.67400000
O 163.60500000 174.07200000 140.58000000
O 161.51100000 174.07200000 142.67400000
Ni 161.51100000 174.07200000 144.76800000
Ni 161.51100000 176.16300000 146.85900000
Ni 163.60500000 174.07200000 146.85900000
Ni 163.60500000 176.16300000 144.76800000
O 163.60500000 174.07200000 144.76800000
O 163.60500000 176.16300000 146.85900000
O 161.51100000 174.07200000 146.85900000
O 161.51100000 176.16300000 144.76800000
Ni 161.51100000 174.07200000 148.95300000
Ni 161.51100000 176.16300000 151.04700000
Ni 163.60500000 174.07200000 151.04700000
Ni 163.60500000 176.16300000 148.95300000
O 163.60500000 174.07200000 148.95300000
O 163.60500000 176.16300000 151.04700000
O 161.51100000 174.07200000 151.04700000
O 161.51100000 176.16300000 148.95300000
Ni 161.51100000 174.07200000 153.14100000
Ni 161.51100000 176.16300000 155.23200000
Ni 163.60500000 174.07200000 155.23200000
Ni 163.60500000 176.16300000 153.14100000
O 163.60500000 174.07200000 153.14100000
O 163.60500000 176.16300000 155.23200000
O 161.51100000 174.07200000 155.23200000
O 161.51100000 176.16300000 153.14100000
Ni 161.51100000 174.07200000 157.32600000
Ni 163.60500000 174.07200000 159.42000000
O 163.60500000 174.07200000 157.32600000
O 161.51100000 174.07200000 159.42000000
O 161.51100000 176.16300000 157.32600000
Ni 161.51100000 174.07200000 161.51100000
O 163.60500000 174.07200000 161.51100000
O 161.51100000 174.07200000 163.60500000
Ni 165.69900000 125.92800000 142.67400000
Ni 165.69900000 125.92800000 146.85900000
O 165.69900000 125.92800000 144.76800000
Ni 165.69900000 125.92800000 151.04700000
Ni 167.79300000 125.92800000 148.95300000
O 167.79300000 125.92800000 151.04700000
O 165.69900000 125.92800000 148.95300000
Ni 165.69900000 125.92800000 155.23200000
O 165.69900000 125.92800000 153.14100000
O 165.69900000 125.92800000 157.32600000
Ni 165.69900000 130.11600000 134.30100000
Ni 165.69900000 130.11600000 138.48900000
Ni 167.79300000 130.11600000 136.39500000
O 167.79300000 130.11600000 138.48900000
O 165.69900000 128.02200000 138.48900000
O 165.69900000 130.11600000 136.39500000
Ni 165.69900000 128.02200000 140.58000000
Ni 165.69900000 130.11600000 142.67400000
Ni 167.79300000 128.02200000 142.67400000
Ni 167.79300000 130.11600000 140.58000000
O 167.79300000 128.02200000 140.58000000
O 167.79300000 130.11600000 142.67400000
O 165.69900000 128.02200000 142.67400000
O 165.69900000 130.11600000 140.58000000
Ni 165.69900000 128.02200000 144.76800000
Ni 165.69900000 130.11600000 146.85900000
Ni 167.79300000 128.02200000 146.85900000
Ni 167.79300000 130.11600000 144.76800000
O 167.79300000 128.02200000 144.76800000
O 167.79300000 130.11600000 146.85900000
O 165.69900000 128.02200000 146.85900000
O 165.69900000 130.11600000 144.76800000
Ni 165.69900000 128.02200000 148.95300000
Ni 165.69900000 130.11600000 151.04700000
Ni 167.79300000 128.02200000 151.04700000
Ni 167.79300000 130.11600000 148.95300000
O 167.79300000 128.02200000 148.95300000
O 167.79300000 130.11600000 151.04700000
O 165.69900000 128.02200000 151.04700000
O 165.69900000 130.11600000 148.95300000
Ni 165.69900000 128.02200000 153.14100000
Ni 165.69900000 130.11600000 155.23200000
Ni 167.79300000 128.02200000 155.23200000
Ni 167.79300000 130.11600000 153.14100000
O 167.79300000 128.02200000 153.14100000
O 167.79300000 130.11600000 155.23200000
O 165.69900000 128.02200000 155.23200000
O 165.69900000 130.11600000 153.14100000
Ni 165.69900000 128.02200000 157.32600000
Ni 165.69900000 130.11600000 159.42000000
Ni 167.79300000 128.02200000 159.42000000
Ni 167.79300000 130.11600000 157.32600000
O 167.79300000 128.02200000 157.32600000
O 167.79300000 130.11600000 159.42000000
O 165.69900000 128.02200000 159.42000000
O 165.69900000 130.11600000 157.32600000
Ni 165.69900000 128.02200000 161.51100000
Ni 165.69900000 130.11600000 163.60500000
Ni 167.79300000 130.11600000 161.51100000
O 167.79300000 130.11600000 163.60500000
O 165.69900000 130.11600000 161.51100000
O 165.69900000 130.11600000 165.69900000
Ni 165.69900000 134.30100000 130.11600000
Ni 165.69900000 132.20700000 132.20700000
Ni 165.69900000 134.30100000 134.30100000
Ni 167.79300000 132.20700000 134.30100000
Ni 167.79300000 134.30100000 132.20700000
O 167.79300000 134.30100000 134.30100000
O 165.69900000 132.20700000 134.30100000
O 165.69900000 134.30100000 132.20700000
Ni 165.69900000 132.20700000 136.39500000
Ni 165.69900000 134.30100000 138.48900000
Ni 167.79300000 132.20700000 138.48900000
Ni 167.79300000 134.30100000 136.39500000
O 167.79300000 132.20700000 136.39500000
O 167.79300000 134.30100000 138.48900000
O 165.69900000 132.20700000 138.48900000
O 165.69900000 134.30100000 136.39500000
Ni 165.69900000 132.20700000 140.58000000
Ni 165.69900000 134.30100000 142.67400000
Ni 167.79300000 132.20700000 142.67400000
Ni 167.79300000 134.30100000 140.58000000
O 167.79300000 132.20700000 140.58000000
O 167.79300000 134.30100000 142.67400000
O 165.69900000 132.20700000 142.67400000
O 165.69900000 134.30100000 140.58000000
Ni 165.69900000 132.20700000 144.76800000
Ni 165.69900000 134.30100000 146.85900000
Ni 167.79300000 132.20700000 146.85900000
Ni 167.79300000 134.30100000 144.76800000
O 167.79300000 132.20700000 144.76800000
O 167.79300000 134.30100000 146.85900000
O 165.69900000 132.20700000 146.85900000
O 165.69900000 134.30100000 144.76800000
Ni 165.69900000 132.20700000 148.95300000
Ni 165.69900000 134.30100000 151.04700000
Ni 167.79300000 132.20700000 151.04700000
Ni 167.79300000 134.30100000 148.95300000
O 167.79300000 132.20700000 148.95300000
O 167.79300000 134.30100000 151.04700000
O 165.69900000 132.20700000 151.04700000
O 165.69900000 134.30100000 148.95300000
Ni 165.69900000 132.20700000 153.14100000
Ni 165.69900000 134.30100000 155.23200000
Ni 167.79300000 132.20700000 155.23200000
Ni 167.79300000 134.30100000 153.14100000
O 167.79300000 132.20700000 153.14100000
O 167.79300000 134.30100000 155.23200000
O 165.69900000 132.20700000 155.23200000
O 165.69900000 134.30100000 153.14100000
Ni 165.69900000 132.20700000 157.32600000
Ni 165.69900000 134.30100000 159.42000000
Ni 167.79300000 132.20700000 159.42000000
Ni 167.79300000 134.30100000 157.32600000
O 167.79300000 132.20700000 157.32600000
O 167.79300000 134.30100000 159.42000000
O 165.69900000 132.20700000 159.42000000
O 165.69900000 134.30100000 157.32600000
Ni 165.69900000 132.20700000 161.51100000
Ni 165.69900000 134.30100000 163.60500000
Ni 167.79300000 132.20700000 163.60500000
Ni 167.79300000 134.30100000 161.51100000
O 167.79300000 132.20700000 161.51100000
O 167.79300000 134.30100000 163.60500000
O 165.69900000 132.20700000 163.60500000
O 165.69900000 134.30100000 161.51100000
Ni 165.69900000 132.20700000 165.69900000
Ni 165.69900000 134.30100000 167.79300000
Ni 167.79300000 134.30100000 165.69900000
O 167.79300000 132.20700000 165.69900000
O 167.79300000 134.30100000 167.79300000
O 165.69900000 132.20700000 167.79300000
O 165.69900000 134.30100000 165.69900000
O 165.69900000 134.30100000 169.88400000
Ni 165.69900000 138.48900000 130.11600000
Ni 167.79300000 136.39500000 130.11600000
O 167.79300000 138.48900000 130.11600000
O 165.69900000 136.39500000 130.11600000
O 165.69900000 138.48900000 128.02200000
Ni 165.69900000 136.39500000 132.20700000
Ni 165.69900000 138.48900000 134.30100000
Ni 167.79300000 136.39500000 134.30100000
Ni 167.79300000 138.48900000 132.20700000
O 167.79300000 136.39500000 132.20700000
O 167.79300000 138.48900000 134.30100000
O 165.69900000 136.39500000 134.30100000
O 165.69900000 138.48900000 132.20700000
Ni 165.69900000 136.39500000 136.39500000
Ni 165.69900000 138.48900000 138.48900000
Ni 167.79300000 136.39500000 138.48900000
Ni 167.79300000 138.48900000 136.39500000
O 167.79300000 136.39500000 136.39500000
O 167.79300000 138.48900000 138.48900000
O 165.69900000 136.39500000 138.48900000
O 165.69900000 138.48900000 136.39500000
Ni 165.69900000 136.39500000 140.58000000
Ni 165.69900000 138.48900000 142.67400000
Ni 167.79300000 136.39500000 142.67400000
Ni 167.79300000 138.48900000 140.58000000
O 167.79300000 136.39500000 140.58000000
O 167.79300000 138.48900000 142.67400000
O 165.69900000 136.39500000 142.67400000
O 165.69900000 138.48900000 140.58000000
Ni 165.69900000 136.39500000 144.76800000
Ni 165.69900000 138.48900000 146.85900000
Ni 167.79300000 136.39500000 146.85900000
Ni 167.79300000 138.48900000 144.76800000
O 167.79300000 136.39500000 144.76800000
O 167.79300000 138.48900000 146.85900000
O 165.69900000 136.39500000 146.85900000
O 165.69900000 138.48900000 144.76800000
Ni 165.69900000 136.39500000 148.95300000
Ni 165.69900000 138.48900000 151.04700000
Ni 167.79300000 136.39500000 151.04700000
Ni 167.79300000 138.48900000 148.95300000
O 167.79300000 136.39500000 148.95300000
O 167.79300000 138.48900000 151.04700000
O 165.69900000 136.39500000 151.04700000
O 165.69900000 138.48900000 148.95300000
Ni 165.69900000 136.39500000 153.14100000
Ni 165.69900000 138.48900000 155.23200000
Ni 167.79300000 136.39500000 155.23200000
Ni 167.79300000 138.48900000 153.14100000
O 167.79300000 136.39500000 153.14100000
O 167.79300000 138.48900000 155.23200000
O 165.69900000 136.39500000 155.23200000
O 165.69900000 138.48900000 153.14100000
Ni 165.69900000 136.39500000 157.32600000
Ni 165.69900000 138.48900000 159.42000000
Ni 167.79300000 136.39500000 159.42000000
Ni 167.79300000 138.48900000 157.32600000
O 167.79300000 136.39500000 157.32600000
O 167.79300000 138.48900000 159.42000000
O 165.69900000 136.39500000 159.42000000
O 165.69900000 138.48900000 157.32600000
Ni 165.69900000 136.39500000 161.51100000
Ni 165.69900000 138.48900000 163.60500000
Ni 167.79300000 136.39500000 163.60500000
Ni 167.79300000 138.48900000 161.51100000
O 167.79300000 136.39500000 161.51100000
O 167.79300000 138.48900000 163.60500000
O 165.69900000 136.39500000 163.60500000
O 165.69900000 138.48900000 161.51100000
Ni 165.69900000 136.39500000 165.69900000
Ni 165.69900000 138.48900000 167.79300000
Ni 167.79300000 136.39500000 167.79300000
Ni 167.79300000 138.48900000 165.69900000
O 167.79300000 136.39500000 165.69900000
O 167.79300000 138.48900000 167.79300000
O 165.69900000 136.39500000 167.79300000
O 165.69900000 138.48900000 165.69900000
Ni 165.69900000 136.39500000 169.88400000
Ni 165.69900000 138.48900000 171.97800000
Ni 167.79300000 138.48900000 169.88400000
O 167.79300000 136.39500000 169.88400000
O 165.69900000 138.48900000 169.88400000
Ni 165.69900000 142.67400000 125.92800000
Ni 165.69900000 140.58000000 128.02200000
Ni 165.69900000 142.67400000 130.11600000
Ni 167.79300000 140.58000000 130.11600000
Ni 167.79300000 142.67400000 128.02200000
O 167.79300000 140.58000000 128.02200000
O 167.79300000 142.67400000 130.11600000
O 165.69900000 140.58000000 130.11600000
O 165.69900000 142.67400000 128.02200000
Ni 165.69900000 140.58000000 132.20700000
Ni 165.69900000 142.67400000 134.30100000
Ni 167.79300000 140.58000000 134.30100000
Ni 167.79300000 142.67400000 132.20700000
O 167.79300000 140.58000000 132.20700000
O 167.79300000 142.67400000 134.30100000
O 165.69900000 140.58000000 134.30100000
O 165.69900000 142.67400000 132.20700000
Ni 165.69900000 140.58000000 136.39500000
Ni 165.69900000 142.67400000 138.48900000
Ni 167.79300000 140.58000000 138.48900000
Ni 167.79300000 142.67400000 136.39500000
O 167.79300000 140.58000000 136.39500000
O 167.79300000 142.67400000 138.48900000
O 165.69900000 140.58000000 138.48900000
O 165.69900000 142.67400000 136.39500000
Ni 165.69900000 140.58000000 140.58000000
Ni 165.69900000 142.67400000 142.67400000
Ni 167.79300000 140.58000000 142.67400000
Ni 167.79300000 142.67400000 140.58000000
O 167.79300000 140.58000000 140.58000000
O 167.79300000 142.67400000 142.67400000
O 165.69900000 140.58000000 142.67400000
O 165.69900000 142.67400000 140.58000000
Ni 165.69900000 140.58000000 144.76800000
Ni 165.69900000 142.67400000 146.85900000
Ni 167.79300000 140.58000000 146.85900000
Ni 167.79300000 142.67400000 144.76800000
O 167.79300000 140.58000000 144.76800000
O 167.79300000 142.67400000 146.85900000
O 165.69900000 140.58000000 146.85900000
O 165.69900000 142.67400000 144.76800000
Ni 165.69900000 140.58000000 148.95300000
Ni 165.69900000 142.67400000 151.04700000
Ni 167.79300000 140.58000000 151.04700000
Ni 167.79300000 142.67400000 148.95300000
O 167.79300000 140.58000000 148.95300000
O 167.79300000 142.67400000 151.04700000
O 165.69900000 140.58000000 151.04700000
O 165.69900000 142.67400000 148.95300000
Ni 165.69900000 140.58000000 153.14100000
Ni 165.69900000 142.67400000 155.23200000
Ni 167.79300000 140.58000000 155.23200000
Ni 167.79300000 142.67400000 153.14100000
O 167.79300000 140.58000000 153.14100000
O 167.79300000 142.67400000 155.23200000
O 165.69900000 140.58000000 155.23200000
O 165.69900000 142.67400000 153.14100000
Ni 165.69900000 140.58000000 157.32600000
Ni 165.69900000 142.67400000 159.42000000
Ni 167.79300000 140.58000000 159.42000000
Ni 167.79300000 142.67400000 157.32600000
O 167.79300000 140.58000000 157.32600000
O 167.79300000 142.67400000 159.42000000
O 165.69900000 140.58000000 159.42000000
O 165.69900000 142.67400000 157.32600000
Ni 165.69900000 140.58000000 161.51100000
Ni 165.69900000 142.67400000 163.60500000
Ni 167.79300000 140.58000000 163.60500000
Ni 167.79300000 142.67400000 161.51100000
O 167.79300000 140.58000000 161.51100000
O 167.79300000 142.67400000 163.60500000
O 165.69900000 140.58000000 163.60500000
O 165.69900000 142.67400000 161.51100000
Ni 165.69900000 140.58000000 165.69900000
Ni 165.69900000 142.67400000 167.79300000
Ni 167.79300000 140.58000000 167.79300000
Ni 167.79300000 142.67400000 165.69900000
O 167.79300000 140.58000000 165.69900000
O 167.79300000 142.67400000 167.79300000
O 165.69900000 140.58000000 167.79300000
O 165.69900000 142.67400000 165.69900000
Ni 165.69900000 140.58000000 169.88400000
Ni 165.69900000 142.67400000 171.97800000
Ni 167.79300000 140.58000000 171.97800000
Ni 167.79300000 142.67400000 169.88400000
O 167.79300000 140.58000000 169.88400000
O 167.79300000 142.67400000 171.97800000
O 165.69900000 140.58000000 171.97800000
O 165.69900000 142.67400000 169.88400000
O 165.69900000 142.67400000 174.07200000
Ni 165.69900000 146.85900000 125.92800000
O 165.69900000 144.76800000 125.92800000
Ni 165.69900000 144.76800000 128.02200000
Ni 165.69900000 146.85900000 130.11600000
Ni 167.79300000 144.76800000 130.11600000
Ni 167.79300000 146.85900000 128.02200000
O 167.79300000 144.76800000 128.02200000
O 167.79300000 146.85900000 130.11600000
O 165.69900000 144.76800000 130.11600000
O 165.69900000 146.85900000 128.02200000
Ni 165.69900000 144.76800000 132.20700000
Ni 165.69900000 146.85900000 134.30100000
Ni 167.79300000 144.76800000 134.30100000
Ni 167.79300000 146.85900000 132.20700000
O 167.79300000 144.76800000 132.20700000
O 167.79300000 146.85900000 134.30100000
O 165.69900000 144.76800000 134.30100000
O 165.69900000 146.85900000 132.20700000
Ni 165.69900000 144.76800000 136.39500000
Ni 165.69900000 146.85900000 138.48900000
Ni 167.79300000 144.76800000 138.48900000
Ni 167.79300000 146.85900000 136.39500000
O 167.79300000 144.76800000 136.39500000
O 167.79300000 146.85900000 138.48900000
O 165.69900000 144.76800000 138.48900000
O 165.69900000 146.85900000 136.39500000
Ni 165.69900000 144.76800000 140.58000000
Ni 165.69900000 146.85900000 142.67400000
Ni 167.79300000 144.76800000 142.67400000
Ni 167.79300000 146.85900000 140.58000000
O 167.79300000 144.76800000 140.58000000
O 167.79300000 146.85900000 142.67400000
O 165.69900000 144.76800000 142.67400000
O 165.69900000 146.85900000 140.58000000
Ni 165.69900000 144.76800000 144.76800000
Ni 165.69900000 146.85900000 146.85900000
Ni 167.79300000 144.76800000 146.85900000
Ni 167.79300000 146.85900000 144.76800000
O 167.79300000 144.76800000 144.76800000
O 167.79300000 146.85900000 146.85900000
O 165.69900000 144.76800000 146.85900000
O 165.69900000 146.85900000 144.76800000
Ni 165.69900000 144.76800000 148.95300000
Ni 165.69900000 146.85900000 151.04700000
Ni 167.79300000 144.76800000 151.04700000
Ni 167.79300000 146.85900000 148.95300000
O 167.79300000 144.76800000 148.95300000
O 167.79300000 146.85900000 151.04700000
O 165.69900000 144.76800000 151.04700000
O 165.69900000 146.85900000 148.95300000
Ni 165.69900000 144.76800000 153.14100000
Ni 165.69900000 146.85900000 155.23200000
Ni 167.79300000 144.76800000 155.23200000
Ni 167.79300000 146.85900000 153.14100000
O 167.79300000 144.76800000 153.14100000
O 167.79300000 146.85900000 155.23200000
O 165.69900000 144.76800000 155.23200000
O 165.69900000 146.85900000 153.14100000
Ni 165.69900000 144.76800000 157.32600000
Ni 165.69900000 146.85900000 159.42000000
Ni 167.79300000 144.76800000 159.42000000
Ni 167.79300000 146.85900000 157.32600000
O 167.79300000 144.76800000 157.32600000
O 167.79300000 146.85900000 159.42000000
O 165.69900000 144.76800000 159.42000000
O 165.69900000 146.85900000 157.32600000
Ni 165.69900000 144.76800000 161.51100000
Ni 165.69900000 146.85900000 163.60500000
Ni 167.79300000 144.76800000 163.60500000
Ni 167.79300000 146.85900000 161.51100000
O 167.79300000 144.76800000 161.51100000
O 167.79300000 146.85900000 163.60500000
O 165.69900000 144.76800000 163.60500000
O 165.69900000 146.85900000 161.51100000
Ni 165.69900000 144.76800000 165.69900000
Ni 165.69900000 146.85900000 167.79300000
Ni 167.79300000 144.76800000 167.79300000
Ni 167.79300000 146.85900000 165.69900000
O 167.79300000 144.76800000 165.69900000
O 167.79300000 146.85900000 167.79300000
O 165.69900000 144.76800000 167.79300000
O 165.69900000 146.85900000 165.69900000
Ni 165.69900000 144.76800000 169.88400000
Ni 165.69900000 146.85900000 171.97800000
Ni 167.79300000 144.76800000 171.97800000
Ni 167.79300000 146.85900000 169.88400000
O 167.79300000 144.76800000 169.88400000
O 167.79300000 146.85900000 171.97800000
O 165.69900000 144.76800000 171.97800000
O 165.69900000 146.85900000 169.88400000
Ni 165.69900000 144.76800000 174.07200000
O 165.69900000 146.85900000 174.07200000
Ni 165.69900000 151.04700000 125.92800000
Ni 167.79300000 148.95300000 125.92800000
O 167.79300000 151.04700000 125.92800000
O 165.69900000 148.95300000 125.92800000
Ni 165.69900000 148.95300000 128.02200000
Ni 165.69900000 151.04700000 130.11600000
Ni 167.79300000 148.95300000 130.11600000
Ni 167.79300000 151.04700000 128.02200000
O 167.79300000 148.95300000 128.02200000
O 167.79300000 151.04700000 130.11600000
O 165.69900000 148.95300000 130.11600000
O 165.69900000 151.04700000 128.02200000
Ni 165.69900000 148.95300000 132.20700000
Ni 165.69900000 151.04700000 134.30100000
Ni 167.79300000 148.95300000 134.30100000
Ni 167.79300000 151.04700000 132.20700000
O 167.79300000 148.95300000 132.20700000
O 167.79300000 151.04700000 134.30100000
O 165.69900000 148.95300000 134.30100000
O 165.69900000 151.04700000 132.20700000
Ni 165.69900000 148.95300000 136.39500000
Ni 165.69900000 151.04700000 138.48900000
Ni 167.79300000 148.95300000 138.48900000
Ni 167.79300000 151.04700000 136.39500000
O 167.79300000 148.95300000 136.39500000
O 167.79300000 151.04700000 138.48900000
O 165.69900000 148.95300000 138.48900000
O 165.69900000 151.04700000 136.39500000
Ni 165.69900000 148.95300000 140.58000000
Ni 165.69900000 151.04700000 142.67400000
Ni 167.79300000 148.95300000 142.67400000
Ni 167.79300000 151.04700000 140.58000000
O 167.79300000 148.95300000 140.58000000
O 167.79300000 151.04700000 142.67400000
O 165.69900000 148.95300000 142.67400000
O 165.69900000 151.04700000 140.58000000
Ni 165.69900000 148.95300000 144.76800000
Ni 165.69900000 151.04700000 146.85900000
Ni 167.79300000 148.95300000 146.85900000
Ni 167.79300000 151.04700000 144.76800000
O 167.79300000 148.95300000 144.76800000
O 167.79300000 151.04700000 146.85900000
O 165.69900000 148.95300000 146.85900000
O 165.69900000 151.04700000 144.76800000
Ni 165.69900000 148.95300000 148.95300000
Ni 165.69900000 151.04700000 151.04700000
Ni 167.79300000 148.95300000 151.04700000
Ni 167.79300000 151.04700000 148.95300000
O 167.79300000 148.95300000 148.95300000
O 167.79300000 151.04700000 151.04700000
O 165.69900000 148.95300000 151.04700000
O 165.69900000 151.04700000 148.95300000
Ni 165.69900000 148.95300000 153.14100000
Ni 165.69900000 151.04700000 155.23200000
Ni 167.79300000 148.95300000 155.23200000
Ni 167.79300000 151.04700000 153.14100000
O 167.79300000 148.95300000 153.14100000
O 167.79300000 151.04700000 155.23200000
O 165.69900000 148.95300000 155.23200000
O 165.69900000 151.04700000 153.14100000
Ni 165.69900000 148.95300000 157.32600000
Ni 165.69900000 151.04700000 159.42000000
Ni 167.79300000 148.95300000 159.42000000
Ni 167.79300000 151.04700000 157.32600000
O 167.79300000 148.95300000 157.32600000
O 167.79300000 151.04700000 159.42000000
O 165.69900000 148.95300000 159.42000000
O 165.69900000 151.04700000 157.32600000
Ni 165.69900000 148.95300000 161.51100000
Ni 165.69900000 151.04700000 163.60500000
Ni 167.79300000 148.95300000 163.60500000
Ni 167.79300000 151.04700000 161.51100000
O 167.79300000 148.95300000 161.51100000
O 167.79300000 151.04700000 163.60500000
O 165.69900000 148.95300000 163.60500000
O 165.69900000 151.04700000 161.51100000
Ni 165.69900000 148.95300000 165.69900000
Ni 165.69900000 151.04700000 167.79300000
Ni 167.79300000 148.95300000 167.79300000
Ni 167.79300000 151.04700000 165.69900000
O 167.79300000 148.95300000 165.69900000
O 167.79300000 151.04700000 167.79300000
O 165.69900000 148.95300000 167.79300000
O 165.69900000 151.04700000 165.69900000
Ni 165.69900000 148.95300000 169.88400000
Ni 165.69900000 151.04700000 171.97800000
Ni 167.79300000 148.95300000 171.97800000
Ni 167.79300000 151.04700000 169.88400000
O 167.79300000 148.95300000 169.88400000
O 167.79300000 151.04700000 171.97800000
O 165.69900000 148.95300000 171.97800000
O 165.69900000 151.04700000 169.88400000
Ni 165.69900000 148.95300000 174.07200000
Ni 167.79300000 151.04700000 174.07200000
O 167.79300000 148.95300000 174.07200000
O 165.69900000 151.04700000 174.07200000
Ni 165.69900000 155.23200000 125.92800000
O 165.69900000 153.14100000 125.92800000
Ni 165.69900000 153.14100000 128.02200000
Ni 165.69900000 155.23200000 130.11600000
Ni 167.79300000 153.14100000 130.11600000
Ni 167.79300000 155.23200000 128.02200000
O 167.79300000 153.14100000 128.02200000
O 167.79300000 155.23200000 130.11600000
O 165.69900000 153.14100000 130.11600000
O 165.69900000 155.23200000 128.02200000
Ni 165.69900000 153.14100000 132.20700000
Ni 165.69900000 155.23200000 134.30100000
Ni 167.79300000 153.14100000 134.30100000
Ni 167.79300000 155.23200000 132.20700000
O 167.79300000 153.14100000 132.20700000
O 167.79300000 155.23200000 134.30100000
O 165.69900000 153.14100000 134.30100000
O 165.69900000 155.23200000 132.20700000
Ni 165.69900000 153.14100000 136.39500000
Ni 165.69900000 155.23200000 138.48900000
Ni 167.79300000 153.14100000 138.48900000
Ni 167.79300000 155.23200000 136.39500000
O 167.79300000 153.14100000 136.39500000
O 167.79300000 155.23200000 138.48900000
O 165.69900000 153.14100000 138.48900000
O 165.69900000 155.23200000 136.39500000
Ni 165.69900000 153.14100000 140.58000000
Ni 165.69900000 155.23200000 142.67400000
Ni 167.79300000 153.14100000 142.67400000
Ni 167.79300000 155.23200000 140.58000000
O 167.79300000 153.14100000 140.58000000
O 167.79300000 155.23200000 142.67400000
O 165.69900000 153.14100000 142.67400000
O 165.69900000 155.23200000 140.58000000
Ni 165.69900000 153.14100000 144.76800000
Ni 165.69900000 155.23200000 146.85900000
Ni 167.79300000 153.14100000 146.85900000
Ni 167.79300000 155.23200000 144.76800000
O 167.79300000 153.14100000 144.76800000
O 167.79300000 155.23200000 146.85900000
O 165.69900000 153.14100000 146.85900000
O 165.69900000 155.23200000 144.76800000
Ni 165.69900000 153.14100000 148.95300000
Ni 165.69900000 155.23200000 151.04700000
Ni 167.79300000 153.14100000 151.04700000
Ni 167.79300000 155.23200000 148.95300000
O 167.79300000 153.14100000 148.95300000
O 167.79300000 155.23200000 151.04700000
O 165.69900000 153.14100000 151.04700000
O 165.69900000 155.23200000 148.95300000
Ni 165.69900000 153.14100000 153.14100000
Ni 165.69900000 155.23200000 155.23200000
Ni 167.79300000 153.14100000 155.23200000
Ni 167.79300000 155.23200000 153.14100000
O 167.79300000 153.14100000 153.14100000
O 167.79300000 155.23200000 155.23200000
O 165.69900000 153.14100000 155.23200000
O 165.69900000 155.23200000 153.14100000
Ni 165.69900000 153.14100000 157.32600000
Ni 165.69900000 155.23200000 159.42000000
Ni 167.79300000 153.14100000 159.42000000
Ni 167.79300000 155.23200000 157.32600000
O 167.79300000 153.14100000 157.32600000
O 167.79300000 155.23200000 159.42000000
O 165.69900000 153.14100000 159.42000000
O 165.69900000 155.23200000 157.32600000
Ni 165.69900000 153.14100000 161.51100000
Ni 165.69900000 155.23200000 163.60500000
Ni 167.79300000 153.14100000 163.60500000
Ni 167.79300000 155.23200000 161.51100000
O 167.79300000 153.14100000 161.51100000
O 167.79300000 155.23200000 163.60500000
O 165.69900000 153.14100000 163.60500000
O 165.69900000 155.23200000 161.51100000
Ni 165.69900000 153.14100000 165.69900000
Ni 165.69900000 155.23200000 167.79300000
Ni 167.79300000 153.14100000 167.79300000
Ni 167.79300000 155.23200000 165.69900000
O 167.79300000 153.14100000 165.69900000
O 167.79300000 155.23200000 167.79300000
O 165.69900000 153.14100000 167.79300000
O 165.69900000 155.23200000 165.69900000
Ni 165.69900000 153.14100000 169.88400000
Ni 165.69900000 155.23200000 171.97800000
Ni 167.79300000 153.14100000 171.97800000
Ni 167.79300000 155.23200000 169.88400000
O 167.79300000 153.14100000 169.88400000
O 167.79300000 155.23200000 171.97800000
O 165.69900000 153.14100000 171.97800000
O 165.69900000 155.23200000 169.88400000
Ni 165.69900000 153.14100000 174.07200000
O 165.69900000 155.23200000 174.07200000
O 165.69900000 157.32600000 125.92800000
Ni 165.69900000 157.32600000 128.02200000
Ni 165.69900000 159.42000000 130.11600000
Ni 167.79300000 157.32600000 130.11600000
Ni 167.79300000 159.42000000 128.02200000
O 167.79300000 157.32600000 128.02200000
O 167.79300000 159.42000000 130.11600000
O 165.69900000 157.32600000 130.11600000
O 165.69900000 159.42000000 128.02200000
Ni 165.69900000 157.32600000 132.20700000
Ni 165.69900000 159.42000000 134.30100000
Ni 167.79300000 157.32600000 134.30100000
Ni 167.79300000 159.42000000 132.20700000
O 167.79300000 157.32600000 132.20700000
O 167.79300000 159.42000000 134.30100000
O 165.69900000 157.32600000 134.30100000
O 165.69900000 159.42000000 132.20700000
Ni 165.69900000 157.32600000 136.39500000
Ni 165.69900000 159.42000000 138.48900000
Ni 167.79300000 157.32600000 138.48900000
Ni 167.79300000 159.42000000 136.39500000
O 167.79300000 157.32600000 136.39500000
O 167.79300000 159.42000000 138.48900000
O 165.69900000 157.32600000 138.48900000
O 165.69900000 159.42000000 136.39500000
Ni 165.69900000 157.32600000 140.58000000
Ni 165.69900000 159.42000000 142.67400000
Ni 167.79300000 157.32600000 142.67400000
Ni 167.79300000 159.42000000 140.58000000
O 167.79300000 157.32600000 140.58000000
O 167.79300000 159.42000000 142.67400000
O 165.69900000 157.32600000 142.67400000
O 165.69900000 159.42000000 140.58000000
Ni 165.69900000 157.32600000 144.76800000
Ni 165.69900000 159.42000000 146.85900000
Ni 167.79300000 157.32600000 146.85900000
Ni 167.79300000 159.42000000 144.76800000
O 167.79300000 157.32600000 144.76800000
O 167.79300000 159.42000000 146.85900000
O 165.69900000 157.32600000 146.85900000
O 165.69900000 159.42000000 144.76800000
Ni 165.69900000 157.32600000 148.95300000
Ni 165.69900000 159.42000000 151.04700000
Ni 167.79300000 157.32600000 151.04700000
Ni 167.79300000 159.42000000 148.95300000
O 167.79300000 157.32600000 148.95300000
O 167.79300000 159.42000000 151.04700000
O 165.69900000 157.32600000 151.04700000
O 165.69900000 159.42000000 148.95300000
Ni 165.69900000 157.32600000 153.14100000
Ni 165.69900000 159.42000000 155.23200000
Ni 167.79300000 157.32600000 155.23200000
Ni 167.79300000 159.42000000 153.14100000
O 167.79300000 157.32600000 153.14100000
O 167.79300000 159.42000000 155.23200000
O 165.69900000 157.32600000 155.23200000
O 165.69900000 159.42000000 153.14100000
Ni 165.69900000 157.32600000 157.32600000
Ni 165.69900000 159.42000000 159.42000000
Ni 167.79300000 157.32600000 159.42000000
Ni 167.79300000 159.42000000 157.32600000
O 167.79300000 157.32600000 157.32600000
O 167.79300000 159.42000000 159.42000000
O 165.69900000 157.32600000 159.42000000
O 165.69900000 159.42000000 157.32600000
Ni 165.69900000 157.32600000 161.51100000
Ni 165.69900000 159.42000000 163.60500000
Ni 167.79300000 157.32600000 163.60500000
Ni 167.79300000 159.42000000 161.51100000
O 167.79300000 157.32600000 161.51100000
O 167.79300000 159.42000000 163.60500000
O 165.69900000 157.32600000 163.60500000
O 165.69900000 159.42000000 161.51100000
Ni 165.69900000 157.32600000 165.69900000
Ni 165.69900000 159.42000000 167.79300000
Ni 167.79300000 157.32600000 167.79300000
Ni 167.79300000 159.42000000 165.69900000
O 167.79300000 157.32600000 165.69900000
O 167.79300000 159.42000000 167.79300000
O 165.69900000 157.32600000 167.79300000
O 165.69900000 159.42000000 165.69900000
Ni 165.69900000 157.32600000 169.88400000
Ni 165.69900000 159.42000000 171.97800000
Ni 167.79300000 157.32600000 171.97800000
Ni 167.79300000 159.42000000 169.88400000
O 167.79300000 157.32600000 169.88400000
O 167.79300000 159.42000000 171.97800000
O 165.69900000 157.32600000 171.97800000
O 165.69900000 159.42000000 169.88400000
Ni 165.69900000 157.32600000 174.07200000
Ni 165.69900000 161.51100000 128.02200000
Ni 165.69900000 163.60500000 130.11600000
Ni 167.79300000 161.51100000 130.11600000
O 167.79300000 163.60500000 130.11600000
O 165.69900000 161.51100000 130.11600000
Ni 165.69900000 161.51100000 132.20700000
Ni 165.69900000 163.60500000 134.30100000
Ni 167.79300000 161.51100000 134.30100000
Ni 167.79300000 163.60500000 132.20700000
O 167.79300000 161.51100000 132.20700000
O 167.79300000 163.60500000 134.30100000
O 165.69900000 161.51100000 134.30100000
O 165.69900000 163.60500000 132.20700000
Ni 165.69900000 161.51100000 136.39500000
Ni 165.69900000 163.60500000 138.48900000
Ni 167.79300000 161.51100000 138.48900000
Ni 167.79300000 163.60500000 136.39500000
O 167.79300000 161.51100000 136.39500000
O 167.79300000 163.60500000 138.48900000
O 165.69900000 161.51100000 138.48900000
O 165.69900000 163.60500000 136.39500000
Ni 165.69900000 161.51100000 140.58000000
Ni 165.69900000 163.60500000 142.67400000
Ni 167.79300000 161.51100000 142.67400000
Ni 167.79300000 163.60500000 140.58000000
O 167.79300000 161.51100000 140.58000000
O 167.79300000 163.60500000 142.67400000
O 165.69900000 161.51100000 142.67400000
O 165.69900000 163.60500000 140.58000000
Ni 165.69900000 161.51100000 144.76800000
Ni 165.69900000 163.60500000 146.85900000
Ni 167.79300000 161.51100000 146.85900000
Ni 167.79300000 163.60500000 144.76800000
O 167.79300000 161.51100000 144.76800000
O 167.79300000 163.60500000 146.85900000
O 165.69900000 161.51100000 146.85900000
O 165.69900000 163.60500000 144.76800000
Ni 165.69900000 161.51100000 148.95300000
Ni 165.69900000 163.60500000 151.04700000
Ni 167.79300000 161.51100000 151.04700000
Ni 167.79300000 163.60500000 148.95300000
O 167.79300000 161.51100000 148.95300000
O 167.79300000 163.60500000 151.04700000
O 165.69900000 161.51100000 151.04700000
O 165.69900000 163.60500000 148.95300000
Ni 165.69900000 161.51100000 153.14100000
Ni 165.69900000 163.60500000 155.23200000
Ni 167.79300000 161.51100000 155.23200000
Ni 167.79300000 163.60500000 153.14100000
O 167.79300000 161.51100000 153.14100000
O 167.79300000 163.60500000 155.23200000
O 165.69900000 161.51100000 155.23200000
O 165.69900000 163.60500000 153.14100000
Ni 165.69900000 161.51100000 157.32600000
Ni 165.69900000 163.60500000 159.42000000
Ni 167.79300000 161.51100000 159.42000000
Ni 167.79300000 163.60500000 157.32600000
O 167.79300000 161.51100000 157.32600000
O 167.79300000 163.60500000 159.42000000
O 165.69900000 161.51100000 159.42000000
O 165.69900000 163.60500000 157.32600000
Ni 165.69900000 161.51100000 161.51100000
Ni 165.69900000 163.60500000 163.60500000
Ni 167.79300000 161.51100000 163.60500000
Ni 167.79300000 163.60500000 161.51100000
O 167.79300000 161.51100000 161.51100000
O 167.79300000 163.60500000 163.60500000
O 165.69900000 161.51100000 163.60500000
O 165.69900000 163.60500000 161.51100000
Ni 165.69900000 161.51100000 165.69900000
Ni 165.69900000 163.60500000 167.79300000
Ni 167.79300000 161.51100000 167.79300000
Ni 167.79300000 163.60500000 165.69900000
O 167.79300000 161.51100000 165.69900000
O 167.79300000 163.60500000 167.79300000
O 165.69900000 161.51100000 167.79300000
O 165.69900000 163.60500000 165.69900000
Ni 165.69900000 161.51100000 169.88400000
Ni 167.79300000 163.60500000 169.88400000
O 167.79300000 161.51100000 169.88400000
O 165.69900000 161.51100000 171.97800000
O 165.69900000 163.60500000 169.88400000
O 165.69900000 165.69900000 130.11600000
Ni 165.69900000 165.69900000 132.20700000
Ni 165.69900000 167.79300000 134.30100000
Ni 167.79300000 165.69900000 134.30100000
O 167.79300000 165.69900000 132.20700000
O 167.79300000 167.79300000 134.30100000
O 165.69900000 165.69900000 134.30100000
O 165.69900000 167.79300000 132.20700000
Ni 165.69900000 165.69900000 136.39500000
Ni 165.69900000 167.79300000 138.48900000
Ni 167.79300000 165.69900000 138.48900000
Ni 167.79300000 167.79300000 136.39500000
O 167.79300000 165.69900000 136.39500000
O 167.79300000 167.79300000 138.48900000
O 165.69900000 165.69900000 138.48900000
O 165.69900000 167.79300000 136.39500000
Ni 165.69900000 165.69900000 140.58000000
Ni 165.69900000 167.79300000 142.67400000
Ni 167.79300000 165.69900000 142.67400000
Ni 167.79300000 167.79300000 140.58000000
O 167.79300000 165.69900000 140.58000000
O 167.79300000 167.79300000 142.67400000
O 165.69900000 165.69900000 142.67400000
O 165.69900000 167.79300000 140.58000000
Ni 165.69900000 165.69900000 144.76800000
Ni 165.69900000 167.79300000 146.85900000
Ni 167.79300000 165.69900000 146.85900000
Ni 167.79300000 167.79300000 144.76800000
O 167.79300000 165.69900000 144.76800000
O 167.79300000 167.79300000 146.85900000
O 165.69900000 165.69900000 146.85900000
O 165.69900000 167.79300000 144.76800000
Ni 165.69900000 165.69900000 148.95300000
Ni 165.69900000 167.79300000 151.04700000
Ni 167.79300000 165.69900000 151.04700000
Ni 167.79300000 167.79300000 148.95300000
O 167.79300000 165.69900000 148.95300000
O 167.79300000 167.79300000 151.04700000
O 165.69900000 165.69900000 151.04700000
O 165.69900000 167.79300000 148.95300000
Ni 165.69900000 165.69900000 153.14100000
Ni 165.69900000 167.79300000 155.23200000
Ni 167.79300000 165.69900000 155.23200000
Ni 167.79300000 167.79300000 153.14100000
O 167.79300000 165.69900000 153.14100000
O 167.79300000 167.79300000 155.23200000
O 165.69900000 165.69900000 155.23200000
O 165.69900000 167.79300000 153.14100000
Ni 165.69900000 165.69900000 157.32600000
Ni 165.69900000 167.79300000 159.42000000
Ni 167.79300000 165.69900000 159.42000000
Ni 167.79300000 167.79300000 157.32600000
O 167.79300000 165.69900000 157.32600000
O 167.79300000 167.79300000 159.42000000
O 165.69900000 165.69900000 159.42000000
O 165.69900000 167.79300000 157.32600000
Ni 165.69900000 165.69900000 161.51100000
Ni 165.69900000 167.79300000 163.60500000
Ni 167.79300000 165.69900000 163.60500000
Ni 167.79300000 167.79300000 161.51100000
O 167.79300000 165.69900000 161.51100000
O 167.79300000 167.79300000 163.60500000
O 165.69900000 165.69900000 163.60500000
O 165.69900000 167.79300000 161.51100000
Ni 165.69900000 165.69900000 165.69900000
Ni 165.69900000 167.79300000 167.79300000
Ni 167.79300000 165.69900000 167.79300000
Ni 167.79300000 167.79300000 165.69900000
O 167.79300000 165.69900000 165.69900000
O 165.69900000 165.69900000 167.79300000
O 165.69900000 167.79300000 165.69900000
Ni 165.69900000 165.69900000 169.88400000
O 165.69900000 169.88400000 134.30100000
Ni 165.69900000 169.88400000 136.39500000
Ni 165.69900000 171.97800000 138.48900000
Ni 167.79300000 169.88400000 138.48900000
O 167.79300000 169.88400000 136.39500000
O 165.69900000 169.88400000 138.48900000
Ni 165.69900000 169.88400000 140.58000000
Ni 165.69900000 171.97800000 142.67400000
Ni 167.79300000 169.88400000 142.67400000
Ni 167.79300000 171.97800000 140.58000000
O 167.79300000 169.88400000 140.58000000
O 167.79300000 171.97800000 142.67400000
O 165.69900000 169.88400000 142.67400000
O 165.69900000 171.97800000 140.58000000
Ni 165.69900000 169.88400000 144.76800000
Ni 165.69900000 171.97800000 146.85900000
Ni 167.79300000 169.88400000 146.85900000
Ni 167.79300000 171.97800000 144.76800000
O 167.79300000 169.88400000 144.76800000
O 167.79300000 171.97800000 146.85900000
O 165.69900000 169.88400000 146.85900000
O 165.69900000 171.97800000 144.76800000
Ni 165.69900000 169.88400000 148.95300000
Ni 165.69900000 171.97800000 151.04700000
Ni 167.79300000 169.88400000 151.04700000
Ni 167.79300000 171.97800000 148.95300000
O 167.79300000 169.88400000 148.95300000
O 167.79300000 171.97800000 151.04700000
O 165.69900000 169.88400000 151.04700000
O 165.69900000 171.97800000 148.95300000
Ni 165.69900000 169.88400000 153.14100000
Ni 165.69900000 171.97800000 155.23200000
Ni 167.79300000 169.88400000 155.23200000
Ni 167.79300000 171.97800000 153.14100000
O 167.79300000 169.88400000 153.14100000
O 167.79300000 171.97800000 155.23200000
O 165.69900000 169.88400000 155.23200000
O 165.69900000 171.97800000 153.14100000
Ni 165.69900000 169.88400000 157.32600000
Ni 165.69900000 171.97800000 159.42000000
Ni 167.79300000 169.88400000 159.42000000
Ni 167.79300000 171.97800000 157.32600000
O 167.79300000 169.88400000 157.32600000
O 167.79300000 171.97800000 159.42000000
O 165.69900000 169.88400000 159.42000000
O 165.69900000 171.97800000 157.32600000
Ni 165.69900000 169.88400000 161.51100000
Ni 167.79300000 169.88400000 163.60500000
O 167.79300000 169.88400000 161.51100000
O 165.69900000 169.88400000 163.60500000
O 165.69900000 171.97800000 161.51100000
Ni 165.69900000 169.88400000 165.69900000
O 165.69900000 174.07200000 142.67400000
Ni 165.69900000 174.07200000 144.76800000
O 165.69900000 174.07200000 146.85900000
Ni 165.69900000 174.07200000 148.95300000
Ni 167.79300000 174.07200000 151.04700000
O 167.79300000 174.07200000 148.95300000
O 165.69900000 174.07200000 151.04700000
Ni 165.69900000 174.07200000 153.14100000
O 165.69900000 174.07200000 155.23200000
Ni 165.69900000 174.07200000 157.32600000
Ni 169.88400000 130.11600000 142.67400000
O 169.88400000 130.11600000 140.58000000
Ni 169.88400000 130.11600000 146.85900000
O 171.97800000 130.11600000 146.85900000
O 169.88400000 128.02200000 146.85900000
O 169.88400000 130.11600000 144.76800000
Ni 169.88400000 128.02200000 148.95300000
Ni 169.88400000 130.11600000 151.04700000
Ni 171.97800000 130.11600000 148.95300000
O 171.97800000 130.11600000 151.04700000
O 169.88400000 128.02200000 151.04700000
O 169.88400000 130.11600000 148.95300000
Ni 169.88400000 128.02200000 153.14100000
Ni 169.88400000 130.11600000 155.23200000
Ni 171.97800000 130.11600000 153.14100000
O 169.88400000 130.11600000 153.14100000
Ni 169.88400000 130.11600000 159.42000000
O 169.88400000 130.11600000 157.32600000
Ni 169.88400000 134.30100000 134.30100000
Ni 169.88400000 132.20700000 136.39500000
Ni 169.88400000 134.30100000 138.48900000
O 171.97800000 134.30100000 138.48900000
O 169.88400000 132.20700000 138.48900000
O 169.88400000 134.30100000 136.39500000
Ni 169.88400000 132.20700000 140.58000000
Ni 169.88400000 134.30100000 142.67400000
Ni 171.97800000 132.20700000 142.67400000
Ni 171.97800000 134.30100000 140.58000000
O 171.97800000 132.20700000 140.58000000
O 171.97800000 134.30100000 142.67400000
O 169.88400000 132.20700000 142.67400000
O 169.88400000 134.30100000 140.58000000
Ni 169.88400000 132.20700000 144.76800000
Ni 169.88400000 134.30100000 146.85900000
Ni 171.97800000 132.20700000 146.85900000
Ni 171.97800000 134.30100000 144.76800000
O 171.97800000 132.20700000 144.76800000
O 171.97800000 134.30100000 146.85900000
O 169.88400000 132.20700000 146.85900000
O 169.88400000 134.30100000 144.76800000
Ni 169.88400000 132.20700000 148.95300000
Ni 169.88400000 134.30100000 151.04700000
Ni 171.97800000 132.20700000 151.04700000
Ni 171.97800000 134.30100000 148.95300000
O 171.97800000 132.20700000 148.95300000
O 171.97800000 134.30100000 151.04700000
O 169.88400000 132.20700000 151.04700000
O 169.88400000 134.30100000 148.95300000
Ni 169.88400000 132.20700000 153.14100000
Ni 169.88400000 134.30100000 155.23200000
Ni 171.97800000 132.20700000 155.23200000
Ni 171.97800000 134.30100000 153.14100000
O 171.97800000 132.20700000 153.14100000
O 171.97800000 134.30100000 155.23200000
O 169.88400000 132.20700000 155.23200000
O 169.88400000 134.30100000 153.14100000
Ni 169.88400000 132.20700000 157.32600000
Ni 169.88400000 134.30100000 159.42000000
Ni 171.97800000 132.20700000 159.42000000
Ni 171.97800000 134.30100000 157.32600000
O 171.97800000 132.20700000 157.32600000
O 171.97800000 134.30100000 159.42000000
O 169.88400000 132.20700000 159.42000000
O 169.88400000 134.30100000 157.32600000
Ni 169.88400000 132.20700000 161.51100000
Ni 169.88400000 134.30100000 163.60500000
Ni 171.97800000 134.30100000 161.51100000
O 169.88400000 132.20700000 163.60500000
O 169.88400000 134.30100000 161.51100000
O 169.88400000 134.30100000 165.69900000
Ni 169.88400000 136.39500000 132.20700000
Ni 169.88400000 138.48900000 134.30100000
O 171.97800000 138.48900000 134.30100000
O 169.88400000 136.39500000 134.30100000
O 169.88400000 138.48900000 132.20700000
Ni 169.88400000 136.39500000 136.39500000
Ni 169.88400000 138.48900000 138.48900000
Ni 171.97800000 136.39500000 138.48900000
Ni 171.97800000 138.48900000 136.39500000
O 171.97800000 136.39500000 136.39500000
O 171.97800000 138.48900000 138.48900000
O 169.88400000 136.39500000 138.48900000
O 169.88400000 138.48900000 136.39500000
Ni 169.88400000 136.39500000 140.58000000
Ni 169.88400000 138.48900000 142.67400000
Ni 171.97800000 136.39500000 142.67400000
Ni 171.97800000 138.48900000 140.58000000
O 171.97800000 136.39500000 140.58000000
O 171.97800000 138.48900000 142.67400000
O 169.88400000 136.39500000 142.67400000
O 169.88400000 138.48900000 140.58000000
Ni 169.88400000 136.39500000 144.76800000
Ni 169.88400000 138.48900000 146.85900000
Ni 171.97800000 136.39500000 146.85900000
Ni 171.97800000 138.48900000 144.76800000
O 171.97800000 136.39500000 144.76800000
O 171.97800000 138.48900000 146.85900000
O 169.88400000 136.39500000 146.85900000
O 169.88400000 138.48900000 144.76800000
Ni 169.88400000 136.39500000 148.95300000
Ni 169.88400000 138.48900000 151.04700000
Ni 171.97800000 136.39500000 151.04700000
Ni 171.97800000 138.48900000 148.95300000
O 171.97800000 136.39500000 148.95300000
O 171.97800000 138.48900000 151.04700000
O 169.88400000 136.39500000 151.04700000
O 169.88400000 138.48900000 148.95300000
Ni 169.88400000 136.39500000 153.14100000
Ni 169.88400000 138.48900000 155.23200000
Ni 171.97800000 136.39500000 155.23200000
Ni 171.97800000 138.48900000 153.14100000
O 171.97800000 136.39500000 153.14100000
O 171.97800000 138.48900000 155.23200000
O 169.88400000 136.39500000 155.23200000
O 169.88400000 138.48900000 153.14100000
Ni 169.88400000 136.39500000 157.32600000
Ni 169.88400000 138.48900000 159.42000000
Ni 171.97800000 136.39500000 159.42000000
Ni 171.97800000 138.48900000 157.32600000
O 171.97800000 136.39500000 157.32600000
O 171.97800000 138.48900000 159.42000000
O 169.88400000 136.39500000 159.42000000
O 169.88400000 138.48900000 157.32600000
Ni 169.88400000 136.39500000 161.51100000
Ni 169.88400000 138.48900000 163.60500000
Ni 171.97800000 136.39500000 163.60500000
Ni 171.97800000 138.48900000 161.51100000
O 171.97800000 136.39500000 161.51100000
O 171.97800000 138.48900000 163.60500000
O 169.88400000 136.39500000 163.60500000
O 169.88400000 138.48900000 161.51100000
Ni 169.88400000 136.39500000 165.69900000
Ni 169.88400000 138.48900000 167.79300000
Ni 171.97800000 138.48900000 165.69900000
O 169.88400000 136.39500000 167.79300000
O 169.88400000 138.48900000 165.69900000
Ni 169.88400000 142.67400000 130.11600000
O 169.88400000 140.58000000 130.11600000
Ni 169.88400000 140.58000000 132.20700000
Ni 169.88400000 142.67400000 134.30100000
Ni 171.97800000 140.58000000 134.30100000
Ni 171.97800000 142.67400000 132.20700000
O 171.97800000 140.58000000 132.20700000
O 171.97800000 142.67400000 134.30100000
O 169.88400000 140.58000000 134.30100000
O 169.88400000 142.67400000 132.20700000
Ni 169.88400000 140.58000000 136.39500000
Ni 169.88400000 142.67400000 138.48900000
Ni 171.97800000 140.58000000 138.48900000
Ni 171.97800000 142.67400000 136.39500000
O 171.97800000 140.58000000 136.39500000
O 171.97800000 142.67400000 138.48900000
O 169.88400000 140.58000000 138.48900000
O 169.88400000 142.67400000 136.39500000
Ni 169.88400000 140.58000000 140.58000000
Ni 169.88400000 142.67400000 142.67400000
Ni 171.97800000 140.58000000 142.67400000
Ni 171.97800000 142.67400000 140.58000000
O 171.97800000 140.58000000 140.58000000
O 171.97800000 142.67400000 142.67400000
O 169.88400000 140.58000000 142.67400000
O 169.88400000 142.67400000 140.58000000
Ni 169.88400000 140.58000000 144.76800000
Ni 169.88400000 142.67400000 146.85900000
Ni 171.97800000 140.58000000 146.85900000
Ni 171.97800000 142.67400000 144.76800000
O 171.97800000 140.58000000 144.76800000
O 171.97800000 142.67400000 146.85900000
O 169.88400000 140.58000000 146.85900000
O 169.88400000 142.67400000 144.76800000
Ni 169.88400000 140.58000000 148.95300000
Ni 169.88400000 142.67400000 151.04700000
Ni 171.97800000 140.58000000 151.04700000
Ni 171.97800000 142.67400000 148.95300000
O 171.97800000 140.58000000 148.95300000
O 171.97800000 142.67400000 151.04700000
O 169.88400000 140.58000000 151.04700000
O 169.88400000 142.67400000 148.95300000
Ni 169.88400000 140.58000000 153.14100000
Ni 169.88400000 142.67400000 155.23200000
Ni 171.97800000 140.58000000 155.23200000
Ni 171.97800000 142.67400000 153.14100000
O 171.97800000 140.58000000 153.14100000
O 171.97800000 142.67400000 155.23200000
O 169.88400000 140.58000000 155.23200000
O 169.88400000 142.67400000 153.14100000
Ni 169.88400000 140.58000000 157.32600000
Ni 169.88400000 142.67400000 159.42000000
Ni 171.97800000 140.58000000 159.42000000
Ni 171.97800000 142.67400000 157.32600000
O 171.97800000 140.58000000 157.32600000
O 171.97800000 142.67400000 159.42000000
O 169.88400000 140.58000000 159.42000000
O 169.88400000 142.67400000 157.32600000
Ni 169.88400000 140.58000000 161.51100000
Ni 169.88400000 142.67400000 163.60500000
Ni 171.97800000 140.58000000 163.60500000
Ni 171.97800000 142.67400000 161.51100000
O 171.97800000 140.58000000 161.51100000
O 171.97800000 142.67400000 163.60500000
O 169.88400000 140.58000000 163.60500000
O 169.88400000 142.67400000 161.51100000
Ni 169.88400000 140.58000000 165.69900000
Ni 169.88400000 142.67400000 167.79300000
Ni 171.97800000 140.58000000 167.79300000
Ni 171.97800000 142.67400000 165.69900000
O 171.97800000 140.58000000 165.69900000
O 171.97800000 142.67400000 167.79300000
O 169.88400000 140.58000000 167.79300000
O 169.88400000 142.67400000 165.69900000
Ni 169.88400000 140.58000000 169.88400000
O 169.88400000 142.67400000 169.88400000
Ni 169.88400000 146.85900000 130.11600000
O 171.97800000 146.85900000 130.11600000
O 169.88400000 144.76800000 130.11600000
O 169.88400000 146.85900000 128.02200000
Ni 169.88400000 144.76800000 132.20700000
Ni 169.88400000 146.85900000 134.30100000
Ni 171.97800000 144.76800000 134.30100000
Ni 171.97800000 146.85900000 132.20700000
O 171.97800000 144.76800000 132.20700000
O 171.97800000 146.85900000 134.30100000
O 169.88400000 144.76800000 134.30100000
O 169.88400000 146.85900000 132.20700000
Ni 169.88400000 144.76800000 136.39500000
Ni 169.88400000 146.85900000 138.48900000
Ni 171.97800000 144.76800000 138.48900000
Ni 171.97800000 146.85900000 136.39500000
O 171.97800000 144.76800000 136.39500000
O 171.97800000 146.85900000 138.48900000
O 169.88400000 144.76800000 138.48900000
O 169.88400000 146.85900000 136.39500000
Ni 169.88400000 144.76800000 140.58000000
Ni 169.88400000 146.85900000 142.67400000
Ni 171.97800000 144.76800000 142.67400000
Ni 171.97800000 146.85900000 140.58000000
O 171.97800000 144.76800000 140.58000000
O 171.97800000 146.85900000 142.67400000
O 169.88400000 144.76800000 142.67400000
O 169.88400000 146.85900000 140.58000000
Ni 169.88400000 144.76800000 144.76800000
Ni 169.88400000 146.85900000 146.85900000
Ni 171.97800000 144.76800000 146.85900000
Ni 171.97800000 146.85900000 144.76800000
O 171.97800000 144.76800000 144.76800000
O 171.97800000 146.85900000 146.85900000
O 169.88400000 144.76800000 146.85900000
O 169.88400000 146.85900000 144.76800000
Ni 169.88400000 144.76800000 148.95300000
Ni 169.88400000 146.85900000 151.04700000
Ni 171.97800000 144.76800000 151.04700000
Ni 171.97800000 146.85900000 148.95300000
O 171.97800000 144.76800000 148.95300000
O 171.97800000 146.85900000 151.04700000
O 169.88400000 144.76800000 151.04700000
O 169.88400000 146.85900000 148.95300000
Ni 169.88400000 144.76800000 153.14100000
Ni 169.88400000 146.85900000 155.23200000
Ni 171.97800000 144.76800000 155.23200000
Ni 171.97800000 146.85900000 153.14100000
O 171.97800000 144.76800000 153.14100000
O 171.97800000 146.85900000 155.23200000
O 169.88400000 144.76800000 155.23200000
O 169.88400000 146.85900000 153.14100000
Ni 169.88400000 144.76800000 157.32600000
Ni 169.88400000 146.85900000 159.42000000
Ni 171.97800000 144.76800000 159.42000000
Ni 171.97800000 146.85900000 157.32600000
O 171.97800000 144.76800000 157.32600000
O 171.97800000 146.85900000 159.42000000
O 169.88400000 144.76800000 159.42000000
O 169.88400000 146.85900000 157.32600000
Ni 169.88400000 144.76800000 161.51100000
Ni 169.88400000 146.85900000 163.60500000
Ni 171.97800000 144.76800000 163.60500000
Ni 171.97800000 146.85900000 161.51100000
O 171.97800000 144.76800000 161.51100000
O 171.97800000 146.85900000 163.60500000
O 169.88400000 144.76800000 163.60500000
O 169.88400000 146.85900000 161.51100000
Ni 169.88400000 144.76800000 165.69900000
Ni 169.88400000 146.85900000 167.79300000
Ni 171.97800000 144.76800000 167.79300000
Ni 171.97800000 146.85900000 165.69900000
O 171.97800000 144.76800000 165.69900000
O 171.97800000 146.85900000 167.79300000
O 169.88400000 144.76800000 167.79300000
O 169.88400000 146.85900000 165.69900000
Ni 169.88400000 144.76800000 169.88400000
Ni 169.88400000 146.85900000 171.97800000
Ni 171.97800000 146.85900000 169.88400000
O 169.88400000 146.85900000 169.88400000
Ni 169.88400000 148.95300000 128.02200000
Ni 169.88400000 151.04700000 130.11600000
Ni 171.97800000 148.95300000 130.11600000
O 171.97800000 151.04700000 130.11600000
O 169.88400000 148.95300000 130.11600000
O 169.88400000 151.04700000 128.02200000
Ni 169.88400000 148.95300000 132.20700000
Ni 169.88400000 151.04700000 134.30100000
Ni 171.97800000 148.95300000 134.30100000
Ni 171.97800000 151.04700000 132.20700000
O 171.97800000 148.95300000 132.20700000
O 171.97800000 151.04700000 134.30100000
O 169.88400000 148.95300000 134.30100000
O 169.88400000 151.04700000 132.20700000
Ni 169.88400000 148.95300000 136.39500000
Ni 169.88400000 151.04700000 138.48900000
Ni 171.97800000 148.95300000 138.48900000
Ni 171.97800000 151.04700000 136.39500000
O 171.97800000 148.95300000 136.39500000
O 171.97800000 151.04700000 138.48900000
O 169.88400000 148.95300000 138.48900000
O 169.88400000 151.04700000 136.39500000
Ni 169.88400000 148.95300000 140.58000000
Ni 169.88400000 151.04700000 142.67400000
Ni 171.97800000 148.95300000 142.67400000
Ni 171.97800000 151.04700000 140.58000000
O 171.97800000 148.95300000 140.58000000
O 171.97800000 151.04700000 142.67400000
O 169.88400000 148.95300000 142.67400000
O 169.88400000 151.04700000 140.58000000
Ni 169.88400000 148.95300000 144.76800000
Ni 169.88400000 151.04700000 146.85900000
Ni 171.97800000 148.95300000 146.85900000
Ni 171.97800000 151.04700000 144.76800000
O 171.97800000 148.95300000 144.76800000
O 171.97800000 151.04700000 146.85900000
O 169.88400000 148.95300000 146.85900000
O 169.88400000 151.04700000 144.76800000
Ni 169.88400000 148.95300000 148.95300000
Ni 169.88400000 151.04700000 151.04700000
Ni 171.97800000 148.95300000 151.04700000
Ni 171.97800000 151.04700000 148.95300000
O 171.97800000 148.95300000 148.95300000
O 171.97800000 151.04700000 151.04700000
O 169.88400000 148.95300000 151.04700000
O 169.88400000 151.04700000 148.95300000
Ni 169.88400000 148.95300000 153.14100000
Ni 169.88400000 151.04700000 155.23200000
Ni 171.97800000 148.95300000 155.23200000
Ni 171.97800000 151.04700000 153.14100000
O 171.97800000 148.95300000 153.14100000
O 171.97800000 151.04700000 155.23200000
O 169.88400000 148.95300000 155.23200000
O 169.88400000 151.04700000 153.14100000
Ni 169.88400000 148.95300000 157.32600000
Ni 169.88400000 151.04700000 159.42000000
Ni 171.97800000 148.95300000 159.42000000
Ni 171.97800000 151.04700000 157.32600000
O 171.97800000 148.95300000 157.32600000
O 171.97800000 151.04700000 159.42000000
O 169.88400000 148.95300000 159.42000000
O 169.88400000 151.04700000 157.32600000
Ni 169.88400000 148.95300000 161.51100000
Ni 169.88400000 151.04700000 163.60500000
Ni 171.97800000 148.95300000 163.60500000
Ni 171.97800000 151.04700000 161.51100000
O 171.97800000 148.95300000 161.51100000
O 171.97800000 151.04700000 163.60500000
O 169.88400000 148.95300000 163.60500000
O 169.88400000 151.04700000 161.51100000
Ni 169.88400000 148.95300000 165.69900000
Ni 169.88400000 151.04700000 167.79300000
Ni 171.97800000 148.95300000 167.79300000
Ni 171.97800000 151.04700000 165.69900000
O 171.97800000 148.95300000 165.69900000
O 171.97800000 151.04700000 167.79300000
O 169.88400000 148.95300000 167.79300000
O 169.88400000 151.04700000 165.69900000
Ni 169.88400000 148.95300000 169.88400000
Ni 169.88400000 151.04700000 171.97800000
Ni 171.97800000 151.04700000 169.88400000
O 171.97800000 148.95300000 169.88400000
O 169.88400000 148.95300000 171.97800000
O 169.88400000 151.04700000 169.88400000
Ni 169.88400000 153.14100000 128.02200000
Ni 169.88400000 155.23200000 130.11600000
Ni 171.97800000 153.14100000 130.11600000
O 169.88400000 153.14100000 130.11600000
Ni 169.88400000 153.14100000 132.20700000
Ni 169.88400000 155.23200000 134.30100000
Ni 171.97800000 153.14100000 134.30100000
Ni 171.97800000 155.23200000 132.20700000
O 171.97800000 153.14100000 132.20700000
O 171.97800000 155.23200000 134.30100000
O 169.88400000 153.14100000 134.30100000
O 169.88400000 155.23200000 132.20700000
Ni 169.88400000 153.14100000 136.39500000
Ni 169.88400000 155.23200000 138.48900000
Ni 171.97800000 153.14100000 138.48900000
Ni 171.97800000 155.23200000 136.39500000
O 171.97800000 153.14100000 136.39500000
O 171.97800000 155.23200000 138.48900000
O 169.88400000 153.14100000 138.48900000
O 169.88400000 155.23200000 136.39500000
Ni 169.88400000 153.14100000 140.58000000
Ni 169.88400000 155.23200000 142.67400000
Ni 171.97800000 153.14100000 142.67400000
Ni 171.97800000 155.23200000 140.58000000
O 171.97800000 153.14100000 140.58000000
O 171.97800000 155.23200000 142.67400000
O 169.88400000 153.14100000 142.67400000
O 169.88400000 155.23200000 140.58000000
Ni 169.88400000 153.14100000 144.76800000
Ni 169.88400000 155.23200000 146.85900000
Ni 171.97800000 153.14100000 146.85900000
Ni 171.97800000 155.23200000 144.76800000
O 171.97800000 153.14100000 144.76800000
O 171.97800000 155.23200000 146.85900000
O 169.88400000 153.14100000 146.85900000
O 169.88400000 155.23200000 144.76800000
Ni 169.88400000 153.14100000 148.95300000
Ni 169.88400000 155.23200000 151.04700000
Ni 171.97800000 153.14100000 151.04700000
Ni 171.97800000 155.23200000 148.95300000
O 171.97800000 153.14100000 148.95300000
O 171.97800000 155.23200000 151.04700000
O 169.88400000 153.14100000 151.04700000
O 169.88400000 155.23200000 148.95300000
Ni 169.88400000 153.14100000 153.14100000
Ni 169.88400000 155.23200000 155.23200000
Ni 171.97800000 153.14100000 155.23200000
Ni 171.97800000 155.23200000 153.14100000
O 171.97800000 153.14100000 153.14100000
O 171.97800000 155.23200000 155.23200000
O 169.88400000 153.14100000 155.23200000
O 169.88400000 155.23200000 153.14100000
Ni 169.88400000 153.14100000 157.32600000
Ni 169.88400000 155.23200000 159.42000000
Ni 171.97800000 153.14100000 159.42000000
Ni 171.97800000 155.23200000 157.32600000
O 171.97800000 153.14100000 157.32600000
O 171.97800000 155.23200000 159.42000000
O 169.88400000 153.14100000 159.42000000
O 169.88400000 155.23200000 157.32600000
Ni 169.88400000 153.14100000 161.51100000
Ni 169.88400000 155.23200000 163.60500000
Ni 171.97800000 153.14100000 163.60500000
Ni 171.97800000 155.23200000 161.51100000
O 171.97800000 153.14100000 161.51100000
O 171.97800000 155.23200000 163.60500000
O 169.88400000 153.14100000 163.60500000
O 169.88400000 155.23200000 161.51100000
Ni 169.88400000 153.14100000 165.69900000
Ni 169.88400000 155.23200000 167.79300000
Ni 171.97800000 153.14100000 167.79300000
Ni 171.97800000 155.23200000 165.69900000
O 171.97800000 153.14100000 165.69900000
O 171.97800000 155.23200000 167.79300000
O 169.88400000 153.14100000 167.79300000
O 169.88400000 155.23200000 165.69900000
Ni 169.88400000 153.14100000 169.88400000
O 171.97800000 153.14100000 169.88400000
O 169.88400000 153.14100000 171.97800000
O 169.88400000 155.23200000 169.88400000
Ni 169.88400000 159.42000000 130.11600000
O 169.88400000 157.32600000 130.11600000
Ni 169.88400000 157.32600000 132.20700000
Ni 169.88400000 159.42000000 134.30100000
Ni 171.97800000 157.32600000 134.30100000
Ni 171.97800000 159.42000000 132.20700000
O 171.97800000 157.32600000 132.20700000
O 171.97800000 159.42000000 134.30100000
O 169.88400000 157.32600000 134.30100000
O 169.88400000 159.42000000 132.20700000
Ni 169.88400000 157.32600000 136.39500000
Ni 169.88400000 159.42000000 138.48900000
Ni 171.97800000 157.32600000 138.48900000
Ni 171.97800000 159.42000000 136.39500000
O 171.97800000 157.32600000 136.39500000
O 171.97800000 159.42000000 138.48900000
O 169.88400000 157.32600000 138.48900000
O 169.88400000 159.42000000 136.39500000
Ni 169.88400000 157.32600000 140.58000000
Ni 169.88400000 159.42000000 142.67400000
Ni 171.97800000 157.32600000 142.67400000
Ni 171.97800000 159.42000000 140.58000000
O 171.97800000 157.32600000 140.58000000
O 171.97800000 159.42000000 142.67400000
O 169.88400000 157.32600000 142.67400000
O 169.88400000 159.42000000 140.58000000
Ni 169.88400000 157.32600000 144.76800000
Ni 169.88400000 159.42000000 146.85900000
Ni 171.97800000 157.32600000 146.85900000
Ni 171.97800000 159.42000000 144.76800000
O 171.97800000 157.32600000 144.76800000
O 171.97800000 159.42000000 146.85900000
O 169.88400000 157.32600000 146.85900000
O 169.88400000 159.42000000 144.76800000
Ni 169.88400000 157.32600000 148.95300000
Ni 169.88400000 159.42000000 151.04700000
Ni 171.97800000 157.32600000 151.04700000
Ni 171.97800000 159.42000000 148.95300000
O 171.97800000 157.32600000 148.95300000
O 171.97800000 159.42000000 151.04700000
O 169.88400000 157.32600000 151.04700000
O 169.88400000 159.42000000 148.95300000
Ni 169.88400000 157.32600000 153.14100000
Ni 169.88400000 159.42000000 155.23200000
Ni 171.97800000 157.32600000 155.23200000
Ni 171.97800000 159.42000000 153.14100000
O 171.97800000 157.32600000 153.14100000
O 171.97800000 159.42000000 155.23200000
O 169.88400000 157.32600000 155.23200000
O 169.88400000 159.42000000 153.14100000
Ni 169.88400000 157.32600000 157.32600000
Ni 169.88400000 159.42000000 159.42000000
Ni 171.97800000 157.32600000 159.42000000
Ni 171.97800000 159.42000000 157.32600000
O 171.97800000 157.32600000 157.32600000
O 171.97800000 159.42000000 159.42000000
O 169.88400000 157.32600000 159.42000000
O 169.88400000 159.42000000 157.32600000
Ni 169.88400000 157.32600000 161.51100000
Ni 169.88400000 159.42000000 163.60500000
Ni 171.97800000 157.32600000 163.60500000
Ni 171.97800000 159.42000000 161.51100000
O 171.97800000 157.32600000 161.51100000
O 171.97800000 159.42000000 163.60500000
O 169.88400000 157.32600000 163.60500000
O 169.88400000 159.42000000 161.51100000
Ni 169.88400000 157.32600000 165.69900000
Ni 169.88400000 159.42000000 167.79300000
Ni 171.97800000 157.32600000 167.79300000
Ni 171.97800000 159.42000000 165.69900000
O 171.97800000 157.32600000 165.69900000
O 171.97800000 159.42000000 167.79300000
O 169.88400000 157.32600000 167.79300000
O 169.88400000 159.42000000 165.69900000
Ni 169.88400000 157.32600000 169.88400000
O 169.88400000 159.42000000 169.88400000
Ni 169.88400000 161.51100000 132.20700000
Ni 169.88400000 163.60500000 134.30100000
Ni 171.97800000 161.51100000 134.30100000
O 169.88400000 161.51100000 134.30100000
O 169.88400000 163.60500000 132.20700000
Ni 169.88400000 161.51100000 136.39500000
Ni 169.88400000 163.60500000 138.48900000
Ni 171.97800000 161.51100000 138.48900000
Ni 171.97800000 163.60500000 136.39500000
O 171.97800000 161.51100000 136.39500000
O 171.97800000 163.60500000 138.48900000
O 169.88400000 161.51100000 138.48900000
O 169.88400000 163.60500000 136.39500000
Ni 169.88400000 161.51100000 140.58000000
Ni 169.88400000 163.60500000 142.67400000
Ni 171.97800000 161.51100000 142.67400000
Ni 171.97800000 163.60500000 140.58000000
O 171.97800000 161.51100000 140.58000000
O 171.97800000 163.60500000 142.67400000
O 169.88400000 161.51100000 142.67400000
O 169.88400000 163.60500000 140.58000000
Ni 169.88400000 161.51100000 144.76800000
Ni 169.88400000 163.60500000 146.85900000
Ni 171.97800000 161.51100000 146.85900000
Ni 171.97800000 163.60500000 144.76800000
O 171.97800000 161.51100000 144.76800000
O 171.97800000 163.60500000 146.85900000
O 169.88400000 161.51100000 146.85900000
O 169.88400000 163.60500000 144.76800000
Ni 169.88400000 161.51100000 148.95300000
Ni 169.88400000 163.60500000 151.04700000
Ni 171.97800000 161.51100000 151.04700000
Ni 171.97800000 163.60500000 148.95300000
O 171.97800000 161.51100000 148.95300000
O 171.97800000 163.60500000 151.04700000
O 169.88400000 161.51100000 151.04700000
O 169.88400000 163.60500000 148.95300000
Ni 169.88400000 161.51100000 153.14100000
Ni 169.88400000 163.60500000 155.23200000
Ni 171.97800000 161.51100000 155.23200000
Ni 171.97800000 163.60500000 153.14100000
O 171.97800000 161.51100000 153.14100000
O 171.97800000 163.60500000 155.23200000
O 169.88400000 161.51100000 155.23200000
O 169.88400000 163.60500000 153.14100000
Ni 169.88400000 161.51100000 157.32600000
Ni 169.88400000 163.60500000 159.42000000
Ni 171.97800000 161.51100000 159.42000000
Ni 171.97800000 163.60500000 157.32600000
O 171.97800000 161.51100000 157.32600000
O 171.97800000 163.60500000 159.42000000
O 169.88400000 161.51100000 159.42000000
O 169.88400000 163.60500000 157.32600000
Ni 169.88400000 161.51100000 161.51100000
Ni 169.88400000 163.60500000 163.60500000
Ni 171.97800000 161.51100000 163.60500000
Ni 171.97800000 163.60500000 161.51100000
O 171.97800000 161.51100000 161.51100000
O 171.97800000 163.60500000 163.60500000
O 169.88400000 161.51100000 163.60500000
O 169.88400000 163.60500000 161.51100000
Ni 169.88400000 161.51100000 165.69900000
Ni 169.88400000 163.60500000 167.79300000
O 171.97800000 161.51100000 165.69900000
O 169.88400000 161.51100000 167.79300000
O 169.88400000 163.60500000 165.69900000
O 169.88400000 165.69900000 134.30100000
Ni 169.88400000 165.69900000 136.39500000
Ni 169.88400000 167.79300000 138.48900000
Ni 171.97800000 165.69900000 138.48900000
O 169.88400000 165.69900000 138.48900000
O 169.88400000 167.79300000 136.39500000
Ni 169.88400000 165.69900000 140.58000000
Ni 169.88400000 167.79300000 142.67400000
Ni 171.97800000 165.69900000 142.67400000
Ni 171.97800000 167.79300000 140.58000000
O 171.97800000 165.69900000 140.58000000
O 171.97800000 167.79300000 142.67400000
O 169.88400000 165.69900000 142.67400000
O 169.88400000 167.79300000 140.58000000
Ni 169.88400000 165.69900000 144.76800000
Ni 169.88400000 167.79300000 146.85900000
Ni 171.97800000 165.69900000 146.85900000
Ni 171.97800000 167.79300000 144.76800000
O 171.97800000 165.69900000 144.76800000
O 171.97800000 167.79300000 146.85900000
O 169.88400000 165.69900000 146.85900000
O 169.88400000 167.79300000 144.76800000
Ni 169.88400000 165.69900000 148.95300000
Ni 169.88400000 167.79300000 151.04700000
Ni 171.97800000 165.69900000 151.04700000
Ni 171.97800000 167.79300000 148.95300000
O 171.97800000 165.69900000 148.95300000
O 171.97800000 167.79300000 151.04700000
O 169.88400000 165.69900000 151.04700000
O 169.88400000 167.79300000 148.95300000
Ni 169.88400000 165.69900000 153.14100000
Ni 169.88400000 167.79300000 155.23200000
Ni 171.97800000 165.69900000 155.23200000
Ni 171.97800000 167.79300000 153.14100000
O 171.97800000 165.69900000 153.14100000
O 171.97800000 167.79300000 155.23200000
O 169.88400000 165.69900000 155.23200000
O 169.88400000 167.79300000 153.14100000
Ni 169.88400000 165.69900000 157.32600000
Ni 169.88400000 167.79300000 159.42000000
Ni 171.97800000 165.69900000 159.42000000
Ni 171.97800000 167.79300000 157.32600000
O 171.97800000 165.69900000 157.32600000
O 171.97800000 167.79300000 159.42000000
O 169.88400000 165.69900000 159.42000000
O 169.88400000 167.79300000 157.32600000
Ni 169.88400000 165.69900000 161.51100000
Ni 169.88400000 167.79300000 163.60500000
O 171.97800000 165.69900000 161.51100000
O 169.88400000 165.69900000 163.60500000
O 169.88400000 167.79300000 161.51100000
Ni 169.88400000 165.69900000 165.69900000
Ni 169.88400000 169.88400000 140.58000000
O 169.88400000 169.88400000 142.67400000
Ni 169.88400000 169.88400000 144.76800000
Ni 169.88400000 171.97800000 146.85900000
Ni 171.97800000 169.88400000 146.85900000
O 169.88400000 169.88400000 146.85900000
Ni 169.88400000 169.88400000 148.95300000
Ni 169.88400000 171.97800000 151.04700000
Ni 171.97800000 169.88400000 151.04700000
O 171.97800000 169.88400000 148.95300000
O 169.88400000 169.88400000 151.04700000
O 169.88400000 171.97800000 148.95300000
Ni 169.88400000 169.88400000 153.14100000
O 171.97800000 169.88400000 153.14100000
O 169.88400000 169.88400000 155.23200000
O 169.88400000 171.97800000 153.14100000
Ni 169.88400000 169.88400000 157.32600000
O 169.88400000 169.88400000 159.42000000
Ni 174.07200000 134.30100000 142.67400000
Ni 174.07200000 134.30100000 146.85900000
O 174.07200000 134.30100000 144.76800000
Ni 174.07200000 132.20700000 148.95300000
Ni 174.07200000 134.30100000 151.04700000
O 174.07200000 132.20700000 151.04700000
O 174.07200000 134.30100000 148.95300000
Ni 174.07200000 134.30100000 155.23200000
O 174.07200000 134.30100000 153.14100000
O 174.07200000 134.30100000 157.32600000
Ni 174.07200000 138.48900000 138.48900000
O 174.07200000 136.39500000 138.48900000
O 174.07200000 138.48900000 136.39500000
Ni 174.07200000 136.39500000 140.58000000
Ni 174.07200000 138.48900000 142.67400000
O 176.16300000 138.48900000 142.67400000
O 174.07200000 136.39500000 142.67400000
O 174.07200000 138.48900000 140.58000000
Ni 174.07200000 136.39500000 144.76800000
Ni 174.07200000 138.48900000 146.85900000
Ni 176.16300000 136.39500000 146.85900000
Ni 176.16300000 138.48900000 144.76800000
O 176.16300000 136.39500000 144.76800000
O 176.16300000 138.48900000 146.85900000
O 174.07200000 136.39500000 146.85900000
O 174.07200000 138.48900000 144.76800000
Ni 174.07200000 136.39500000 148.95300000
Ni 174.07200000 138.48900000 151.04700000
Ni 176.16300000 136.39500000 151.04700000
Ni 176.16300000 138.48900000 148.95300000
O 176.16300000 136.39500000 148.95300000
O 176.16300000 138.48900000 151.04700000
O 174.07200000 136.39500000 151.04700000
O 174.07200000 138.48900000 148.95300000
Ni 174.07200000 136.39500000 153.14100000
Ni 174.07200000 138.48900000 155.23200000
Ni 176.16300000 136.39500000 155.23200000
Ni 176.16300000 138.48900000 153.14100000
O 176.16300000 136.39500000 153.14100000
O 176.16300000 138.48900000 155.23200000
O 174.07200000 136.39500000 155.23200000
O 174.07200000 138.48900000 153.14100000
Ni 174.07200000 136.39500000 157.32600000
Ni 174.07200000 138.48900000 159.42000000
Ni 176.16300000 138.48900000 157.32600000
O 174.07200000 136.39500000 159.42000000
O 174.07200000 138.48900000 157.32600000
Ni 174.07200000 136.39500000 161.51100000
Ni 174.07200000 138.48900000 163.60500000
O 174.07200000 138.48900000 161.51100000
Ni 174.07200000 142.67400000 134.30100000
Ni 174.07200000 140.58000000 136.39500000
Ni 174.07200000 142.67400000 138.48900000
O 176.16300000 142.67400000 138.48900000
O 174.07200000 140.58000000 138.48900000
O 174.07200000 142.67400000 136.39500000
Ni 174.07200000 140.58000000 140.58000000
Ni 174.07200000 142.67400000 142.67400000
Ni 176.16300000 140.58000000 142.67400000
Ni 176.16300000 142.67400000 140.58000000
O 176.16300000 140.58000000 140.58000000
O 176.16300000 142.67400000 142.67400000
O 174.07200000 140.58000000 142.67400000
O 174.07200000 142.67400000 140.58000000
Ni 174.07200000 140.58000000 144.76800000
Ni 174.07200000 142.67400000 146.85900000
Ni 176.16300000 140.58000000 146.85900000
Ni 176.16300000 142.67400000 144.76800000
O 176.16300000 140.58000000 144.76800000
O 176.16300000 142.67400000 146.85900000
O 174.07200000 140.58000000 146.85900000
O 174.07200000 142.67400000 144.76800000
Ni 174.07200000 140.58000000 148.95300000
Ni 174.07200000 142.67400000 151.04700000
Ni 176.16300000 140.58000000 151.04700000
Ni 176.16300000 142.67400000 148.95300000
O 176.16300000 140.58000000 148.95300000
O 176.16300000 142.67400000 151.04700000
O 174.07200000 140.58000000 151.04700000
O 174.07200000 142.67400000 148.95300000
Ni 174.07200000 140.58000000 153.14100000
Ni 174.07200000 142.67400000 155.23200000
Ni 176.16300000 140.58000000 155.23200000
Ni 176.16300000 142.67400000 153.14100000
O 176.16300000 140.58000000 153.14100000
O 176.16300000 142.67400000 155.23200000
O 174.07200000 140.58000000 155.23200000
O 174.07200000 142.67400000 153.14100000
Ni 174.07200000 140.58000000 157.32600000
Ni 174.07200000 142.67400000 159.42000000
Ni 176.16300000 140.58000000 159.42000000
Ni 176.16300000 142.67400000 157.32600000
O 176.16300000 140.58000000 157.32600000
O 176.16300000 142.67400000 159.42000000
O 174.07200000 140.58000000 159.42000000
O 174.07200000 142.67400000 157.32600000
Ni 174.07200000 140.58000000 161.51100000
Ni 174.07200000 142.67400000 163.60500000
Ni 176.16300000 142.67400000 161.51100000
O 174.07200000 140.58000000 163.60500000
O 174.07200000 142.67400000 161.51100000
O 174.07200000 142.67400000 165.69900000
Ni 174.07200000 146.85900000 134.30100000
O 174.07200000 144.76800000 134.30100000
Ni 174.07200000 144.76800000 136.39500000
Ni 174.07200000 146.85900000 138.48900000
Ni 176.16300000 144.76800000 138.48900000
Ni 176.16300000 146.85900000 136.39500000
O 176.16300000 144.76800000 136.39500000
O 176.16300000 146.85900000 138.48900000
O 174.07200000 144.76800000 138.48900000
O 174.07200000 146.85900000 136.39500000
Ni 174.07200000 144.76800000 140.58000000
Ni 174.07200000 146.85900000 142.67400000
Ni 176.16300000 144.76800000 142.67400000
Ni 176.16300000 146.85900000 140.58000000
O 176.16300000 144.76800000 140.58000000
O 176.16300000 146.85900000 142.67400000
O 174.07200000 144.76800000 142.67400000
O 174.07200000 146.85900000 140.58000000
Ni 174.07200000 144.76800000 144.76800000
Ni 174.07200000 146.85900000 146.85900000
Ni 176.16300000 144.76800000 146.85900000
Ni 176.16300000 146.85900000 144.76800000
O 176.16300000 144.76800000 144.76800000
O 176.16300000 146.85900000 146.85900000
O 174.07200000 144.76800000 146.85900000
O 174.07200000 146.85900000 144.76800000
Ni 174.07200000 144.76800000 148.95300000
Ni 174.07200000 146.85900000 151.04700000
Ni 176.16300000 144.76800000 151.04700000
Ni 176.16300000 146.85900000 148.95300000
O 176.16300000 144.76800000 148.95300000
O 176.16300000 146.85900000 151.04700000
O 174.07200000 144.76800000 151.04700000
O 174.07200000 146.85900000 148.95300000
Ni 174.07200000 144.76800000 153.14100000
Ni 174.07200000 146.85900000 155.23200000
Ni 176.16300000 144.76800000 155.23200000
Ni 176.16300000 146.85900000 153.14100000
O 176.16300000 144.76800000 153.14100000
O 176.16300000 146.85900000 155.23200000
O 174.07200000 144.76800000 155.23200000
O 174.07200000 146.85900000 153.14100000
Ni 174.07200000 144.76800000 157.32600000
Ni 174.07200000 146.85900000 159.42000000
Ni 176.16300000 144.76800000 159.42000000
Ni 176.16300000 146.85900000 157.32600000
O 176.16300000 144.76800000 157.32600000
O 176.16300000 146.85900000 159.42000000
O 174.07200000 144.76800000 159.42000000
O 174.07200000 146.85900000 157.32600000
Ni 174.07200000 144.76800000 161.51100000
Ni 174.07200000 146.85900000 163.60500000
Ni 176.16300000 144.76800000 163.60500000
Ni 176.16300000 146.85900000 161.51100000
O 176.16300000 144.76800000 161.51100000
O 176.16300000 146.85900000 163.60500000
O 174.07200000 144.76800000 163.60500000
O 174.07200000 146.85900000 161.51100000
Ni 174.07200000 144.76800000 165.69900000
O 174.07200000 146.85900000 165.69900000
Ni 174.07200000 148.95300000 132.20700000
Ni 174.07200000 151.04700000 134.30100000
O 174.07200000 148.95300000 134.30100000
O 174.07200000 151.04700000 132.20700000
Ni 174.07200000 148.95300000 136.39500000
Ni 174.07200000 151.04700000 138.48900000
Ni 176.16300000 148.95300000 138.48900000
Ni 176.16300000 151.04700000 136.39500000
O 176.16300000 148.95300000 136.39500000
O 176.16300000 151.04700000 138.48900000
O 174.07200000 148.95300000 138.48900000
O 174.07200000 151.04700000 136.39500000
Ni 174.07200000 148.95300000 140.58000000
Ni 174.07200000 151.04700000 142.67400000
Ni 176.16300000 148.95300000 142.67400000
Ni 176.16300000 151.04700000 140.58000000
O 176.16300000 148.95300000 140.58000000
O 176.16300000 151.04700000 142.67400000
O 174.07200000 148.95300000 142.67400000
O 174.07200000 151.04700000 140.58000000
Ni 174.07200000 148.95300000 144.76800000
Ni 174.07200000 151.04700000 146.85900000
Ni 176.16300000 148.95300000 146.85900000
Ni 176.16300000 151.04700000 144.76800000
O 176.16300000 148.95300000 144.76800000
O 176.16300000 151.04700000 146.85900000
O 174.07200000 148.95300000 146.85900000
O 174.07200000 151.04700000 144.76800000
Ni 174.07200000 148.95300000 148.95300000
Ni 174.07200000 151.04700000 151.04700000
Ni 176.16300000 148.95300000 151.04700000
Ni 176.16300000 151.04700000 148.95300000
O 176.16300000 148.95300000 148.95300000
O 176.16300000 151.04700000 151.04700000
O 174.07200000 148.95300000 151.04700000
O 174.07200000 151.04700000 148.95300000
Ni 174.07200000 148.95300000 153.14100000
Ni 174.07200000 151.04700000 155.23200000
Ni 176.16300000 148.95300000 155.23200000
Ni 176.16300000 151.04700000 153.14100000
O 176.16300000 148.95300000 153.14100000
O 176.16300000 151.04700000 155.23200000
O 174.07200000 148.95300000 155.23200000
O 174.07200000 151.04700000 153.14100000
Ni 174.07200000 148.95300000 157.32600000
Ni 174.07200000 151.04700000 159.42000000
Ni 176.16300000 148.95300000 159.42000000
Ni 176.16300000 151.04700000 157.32600000
O 176.16300000 148.95300000 157.32600000
O 176.16300000 151.04700000 159.42000000
O 174.07200000 148.95300000 159.42000000
O 174.07200000 151.04700000 157.32600000
Ni 174.07200000 148.95300000 161.51100000
Ni 174.07200000 151.04700000 163.60500000
Ni 176.16300000 148.95300000 163.60500000
Ni 176.16300000 151.04700000 161.51100000
O 176.16300000 148.95300000 161.51100000
O 176.16300000 151.04700000 163.60500000
O 174.07200000 148.95300000 163.60500000
O 174.07200000 151.04700000 161.51100000
Ni 174.07200000 148.95300000 165.69900000
Ni 174.07200000 151.04700000 167.79300000
O 174.07200000 148.95300000 167.79300000
O 174.07200000 151.04700000 165.69900000
Ni 174.07200000 155.23200000 134.30100000
O 174.07200000 153.14100000 134.30100000
Ni 174.07200000 153.14100000 136.39500000
Ni 174.07200000 155.23200000 138.48900000
Ni 176.16300000 153.14100000 138.48900000
Ni 176.16300000 155.23200000 136.39500000
O 176.16300000 153.14100000 136.39500000
O 176.16300000 155.23200000 138.48900000
O 174.07200000 153.14100000 138.48900000
O 174.07200000 155.23200000 136.39500000
Ni 174.07200000 153.14100000 140.58000000
Ni 174.07200000 155.23200000 142.67400000
Ni 176.16300000 153.14100000 142.67400000
Ni 176.16300000 155.23200000 140.58000000
O 176.16300000 153.14100000 140.58000000
O 176.16300000 155.23200000 142.67400000
O 174.07200000 153.14100000 142.67400000
O 174.07200000 155.23200000 140.58000000
Ni 174.07200000 153.14100000 144.76800000
Ni 174.07200000 155.23200000 146.85900000
Ni 176.16300000 153.14100000 146.85900000
Ni 176.16300000 155.23200000 144.76800000
O 176.16300000 153.14100000 144.76800000
O 176.16300000 155.23200000 146.85900000
O 174.07200000 153.14100000 146.85900000
O 174.07200000 155.23200000 144.76800000
Ni 174.07200000 153.14100000 148.95300000
Ni 174.07200000 155.23200000 151.04700000
Ni 176.16300000 153.14100000 151.04700000
Ni 176.16300000 155.23200000 148.95300000
O 176.16300000 153.14100000 148.95300000
O 176.16300000 155.23200000 151.04700000
O 174.07200000 153.14100000 151.04700000
O 174.07200000 155.23200000 148.95300000
Ni 174.07200000 153.14100000 153.14100000
Ni 174.07200000 155.23200000 155.23200000
Ni 176.16300000 153.14100000 155.23200000
Ni 176.16300000 155.23200000 153.14100000
O 176.16300000 153.14100000 153.14100000
O 176.16300000 155.23200000 155.23200000
O 174.07200000 153.14100000 155.23200000
O 174.07200000 155.23200000 153.14100000
Ni 174.07200000 153.14100000 157.32600000
Ni 174.07200000 155.23200000 159.42000000
Ni 176.16300000 153.14100000 159.42000000
Ni 176.16300000 155.23200000 157.32600000
O 176.16300000 153.14100000 157.32600000
O 176.16300000 155.23200000 159.42000000
O 174.07200000 153.14100000 159.42000000
O 174.07200000 155.23200000 157.32600000
Ni 174.07200000 153.14100000 161.51100000
Ni 174.07200000 155.23200000 163.60500000
Ni 176.16300000 153.14100000 163.60500000
Ni 176.16300000 155.23200000 161.51100000
O 176.16300000 153.14100000 161.51100000
O 176.16300000 155.23200000 163.60500000
O 174.07200000 153.14100000 163.60500000
O 174.07200000 155.23200000 161.51100000
Ni 174.07200000 153.14100000 165.69900000
O 174.07200000 155.23200000 165.69900000
O 174.07200000 157.32600000 134.30100000
Ni 174.07200000 157.32600000 136.39500000
Ni 174.07200000 159.42000000 138.48900000
Ni 176.16300000 157.32600000 138.48900000
O 174.07200000 157.32600000 138.48900000
O 174.07200000 159.42000000 136.39500000
Ni 174.07200000 157.32600000 140.58000000
Ni 174.07200000 159.42000000 142.67400000
Ni 176.16300000 157.32600000 142.67400000
Ni 176.16300000 159.42000000 140.58000000
O 176.16300000 157.32600000 140.58000000
O 176.16300000 159.42000000 142.67400000
O 174.07200000 157.32600000 142.67400000
O 174.07200000 159.42000000 140.58000000
Ni 174.07200000 157.32600000 144.76800000
Ni 174.07200000 159.42000000 146.85900000
Ni 176.16300000 157.32600000 146.85900000
Ni 176.16300000 159.42000000 144.76800000
O 176.16300000 157.32600000 144.76800000
O 176.16300000 159.42000000 146.85900000
O 174.07200000 157.32600000 146.85900000
O 174.07200000 159.42000000 144.76800000
Ni 174.07200000 157.32600000 148.95300000
Ni 174.07200000 159.42000000 151.04700000
Ni 176.16300000 157.32600000 151.04700000
Ni 176.16300000 159.42000000 148.95300000
O 176.16300000 157.32600000 148.95300000
O 176.16300000 159.42000000 151.04700000
O 174.07200000 157.32600000 151.04700000
O 174.07200000 159.42000000 148.95300000
Ni 174.07200000 157.32600000 153.14100000
Ni 174.07200000 159.42000000 155.23200000
Ni 176.16300000 157.32600000 155.23200000
Ni 176.16300000 159.42000000 153.14100000
O 176.16300000 157.32600000 153.14100000
O 176.16300000 159.42000000 155.23200000
O 174.07200000 157.32600000 155.23200000
O 174.07200000 159.42000000 153.14100000
Ni 174.07200000 157.32600000 157.32600000
Ni 174.07200000 159.42000000 159.42000000
Ni 176.16300000 157.32600000 159.42000000
Ni 176.16300000 159.42000000 157.32600000
O 176.16300000 157.32600000 157.32600000
O 176.16300000 159.42000000 159.42000000
O 174.07200000 157.32600000 159.42000000
O 174.07200000 159.42000000 157.32600000
Ni 174.07200000 157.32600000 161.51100000
Ni 174.07200000 159.42000000 163.60500000
O 176.16300000 157.32600000 161.51100000
O 174.07200000 157.32600000 163.60500000
O 174.07200000 159.42000000 161.51100000
Ni 174.07200000 157.32600000 165.69900000
Ni 174.07200000 161.51100000 136.39500000
Ni 174.07200000 163.60500000 138.48900000
O 174.07200000 161.51100000 138.48900000
Ni 174.07200000 161.51100000 140.58000000
Ni 174.07200000 163.60500000 142.67400000
Ni 176.16300000 161.51100000 142.67400000
O 174.07200000 161.51100000 142.67400000
O 174.07200000 163.60500000 140.58000000
Ni 174.07200000 161.51100000 144.76800000
Ni 174.07200000 163.60500000 146.85900000
Ni 176.16300000 161.51100000 146.85900000
Ni 176.16300000 163.60500000 144.76800000
O 176.16300000 161.51100000 144.76800000
O 176.16300000 163.60500000 146.85900000
O 174.07200000 161.51100000 146.85900000
O 174.07200000 163.60500000 144.76800000
Ni 174.07200000 161.51100000 148.95300000
Ni 174.07200000 163.60500000 151.04700000
Ni 176.16300000 161.51100000 151.04700000
Ni 176.16300000 163.60500000 148.95300000
O 176.16300000 161.51100000 148.95300000
O 176.16300000 163.60500000 151.04700000
O 174.07200000 161.51100000 151.04700000
O 174.07200000 163.60500000 148.95300000
Ni 174.07200000 161.51100000 153.14100000
Ni 174.07200000 163.60500000 155.23200000
Ni 176.16300000 161.51100000 155.23200000
Ni 176.16300000 163.60500000 153.14100000
O 176.16300000 161.51100000 153.14100000
O 176.16300000 163.60500000 155.23200000
O 174.07200000 161.51100000 155.23200000
O 174.07200000 163.60500000 153.14100000
Ni 174.07200000 161.51100000 157.32600000
Ni 174.07200000 163.60500000 159.42000000
O 176.16300000 161.51100000 157.32600000
O 174.07200000 161.51100000 159.42000000
O 174.07200000 163.60500000 157.32600000
Ni 174.07200000 161.51100000 161.51100000
O 174.07200000 161.51100000 163.60500000
O 174.07200000 163.60500000 161.51100000
O 174.07200000 165.69900000 142.67400000
Ni 174.07200000 165.69900000 144.76800000
O 174.07200000 165.69900000 146.85900000
Ni 174.07200000 165.69900000 148.95300000
Ni 174.07200000 167.79300000 151.04700000
O 174.07200000 165.69900000 151.04700000
O 174.07200000 167.79300000 148.95300000
Ni 174.07200000 165.69900000 153.14100000
O 174.07200000 165.69900000 155.23200000
Ni 174.07200000 165.69900000 157.32600000
Ni 178.25700000 142.67400000 146.85900000
O 178.25700000 140.58000000 146.85900000
O 178.25700000 142.67400000 144.76800000
Ni 178.25700000 140.58000000 148.95300000
Ni 178.25700000 142.67400000 151.04700000
O 178.25700000 140.58000000 151.04700000
O 178.25700000 142.67400000 148.95300000
Ni 178.25700000 140.58000000 153.14100000
Ni 178.25700000 142.67400000 155.23200000
O 178.25700000 142.67400000 153.14100000
Ni 178.25700000 146.85900000 142.67400000
O 178.25700000 144.76800000 142.67400000
O 178.25700000 146.85900000 140.58000000
Ni 178.25700000 144.76800000 144.76800000
Ni 178.25700000 146.85900000 146.85900000
O 178.25700000 144.76800000 146.85900000
O 178.25700000 146.85900000 144.76800000
Ni 178.25700000 144.76800000 148.95300000
Ni 178.25700000 146.85900000 151.04700000
O 178.25700000 144.76800000 151.04700000
O 178.25700000 146.85900000 148.95300000
Ni 178.25700000 144.76800000 153.14100000
Ni 178.25700000 146.85900000 155.23200000
O 178.25700000 144.76800000 155.23200000
O 178.25700000 146.85900000 153.14100000
Ni 178.25700000 144.76800000 157.32600000
Ni 178.25700000 146.85900000 159.42000000
O 178.25700000 146.85900000 157.32600000
Ni 178.25700000 148.95300000 140.58000000
Ni 178.25700000 151.04700000 142.67400000
O 178.25700000 148.95300000 142.67400000
O 178.25700000 151.04700000 140.58000000
Ni 178.25700000 148.95300000 144.76800000
Ni 178.25700000 151.04700000 146.85900000
O 178.25700000 148.95300000 146.85900000
O 178.25700000 151.04700000 144.76800000
Ni 178.25700000 148.95300000 148.95300000
Ni 178.25700000 151.04700000 151.04700000
O 178.25700000 148.95300000 151.04700000
O 178.25700000 151.04700000 148.95300000
Ni 178.25700000 148.95300000 153.14100000
Ni 178.25700000 151.04700000 155.23200000
O 178.25700000 148.95300000 155.23200000
O 178.25700000 151.04700000 153.14100000
Ni 178.25700000 148.95300000 157.32600000
Ni 178.25700000 151.04700000 159.42000000
O 178.25700000 148.95300000 159.42000000
O 178.25700000 151.04700000 157.32600000
Ni 178.25700000 153.14100000 140.58000000
Ni 178.25700000 155.23200000 142.67400000
O 178.25700000 153.14100000 142.67400000
Ni 178.25700000 153.14100000 144.76800000
Ni 178.25700000 155.23200000 146.85900000
O 178.25700000 153.14100000 146.85900000
O 178.25700000 155.23200000 144.76800000
Ni 178.25700000 153.14100000 148.95300000
Ni 178.25700000 155.23200000 151.04700000
O 178.25700000 153.14100000 151.04700000
O 178.25700000 155.23200000 148.95300000
Ni 178.25700000 153.14100000 153.14100000
Ni 178.25700000 155.23200000 155.23200000
O 178.25700000 153.14100000 155.23200000
O 178.25700000 155.23200000 153.14100000
Ni 178.25700000 153.14100000 157.32600000
O 178.25700000 153.14100000 159.42000000
O 178.25700000 155.23200000 157.32600000
Ni 178.25700000 157.32600000 144.76800000
Ni 178.25700000 159.42000000 146.85900000
O 178.25700000 157.32600000 146.85900000
Ni 178.25700000 157.32600000 148.95300000
Ni 178.25700000 159.42000000 151.04700000
O 178.25700000 157.32600000 151.04700000
O 178.25700000 159.42000000 148.95300000
Ni 178.25700000 157.32600000 153.14100000
O 178.25700000 157.32600000 155.23200000
O 178.25700000 159.42000000 153.14100000
Fe 181.23600000 145.77900000 150.00000000
Fe 181.23600000 150.00000000 145.77900000
Fe 181.23600000 150.00000000 154.22100000
Fe 181.23600000 154.22100000 150.00000000
Fe 182.29200000 144.72300000 153.16500000
Fe 182.29200000 146.83500000 146.83500000
Fe 182.29200000 146.83500000 155.27700000
Fe 182.29200000 148.94400000 148.94400000
Fe 182.29200000 151.05600000 151.05600000
Fe 182.29200000 153.16500000 144.72300000
Fe 182.29200000 153.16500000 153.16500000
Fe 182.29200000 155.27700000 146.83500000
Fe 183.34800000 143.66700000 147.88800000
Fe 183.34800000 143.66700000 156.33300000
Fe 183.34800000 147.88800000 143.66700000
Fe 183.34800000 147.88800000 152.11200000
Fe 183.34800000 152.11200000 147.88800000
Fe 183.34800000 152.11200000 156.33300000
Fe 183.34800000 156.33300000 143.66700000
Fe 183.34800000 156.33300000 152.11200000
Fe 184.40400000 140.49900000 146.83500000
Fe 184.40400000 142.61100000 144.72300000
Fe 184.40400000 142.61100000 153.16500000
Fe 184.40400000 144.72300000 142.61100000
Fe 184.40400000 144.72300000 151.05600000
Fe 184.40400000 146.83500000 140.49900000
Fe 184.40400000 146.83500000 148.94400000
Fe 184.40400000 146.83500000 157.38900000
Fe 184.40400000 148.94400000 146.83500000
Fe 184.40400000 148.94400000 155.27700000
Fe 184.40400000 151.05600000 144.72300000
Fe 184.40400000 151.05600000 153.16500000
Fe 184.40400000 153.16500000 142.61100000
Fe 184.40400000 153.16500000 151.05600000
Fe 184.40400000 153.16500000 159.50100000
Fe 184.40400000 155.27700000 148.94400000
Fe 184.40400000 155.27700000 157.38900000
Fe 184.40400000 157.38900000 146.83500000
Fe 184.40400000 157.38900000 155.27700000
Fe 184.40400000 159.50100000 153.16500000
Fe 185.46000000 141.55500000 150.00000000
Fe 185.46000000 145.77900000 145.77900000
Fe 185.46000000 145.77900000 154.22100000
Fe 185.46000000 150.00000000 141.55500000
Fe 185.46000000 150.00000000 150.00000000
Fe 185.46000000 150.00000000 158.44500000
Fe 185.46000000 154.22100000 145.77900000
Fe 185.46000000 154.22100000 154.22100000
Fe 185.46000000 158.44500000 141.55500000
Fe 185.46000000 158.44500000 150.00000000
Fe 185.46000000 158.44500000 158.44500000
Fe 186.51600000 138.39000000 151.05600000
Fe 186.51600000 140.49900000 144.72300000
Fe 186.51600000 140.49900000 153.16500000
Fe 186.51600000 142.61100000 146.83500000
Fe 186.51600000 142.61100000 155.27700000
Fe 186.51600000 144.72300000 140.49900000
Fe 186.51600000 144.72300000 148.94400000
Fe 186.51600000 144.72300000 157.38900000
Fe 186.51600000 146.83500000 142.61100000
Fe 186.51600000 146.83500000 151.05600000
Fe 186.51600000 146.83500000 159.50100000
Fe 186.51600000 148.94400000 144.72300000
Fe 186.51600000 148.94400000 153.16500000
Fe 186.51600000 148.94400000 161.61000000
Fe 186.51600000 151.05600000 138.39000000
Fe 186.51600000 151.05600000 146.83500000
Fe 186.51600000 151.05600000 155.27700000
Fe 186.51600000 153.16500000 140.49900000
Fe 186.51600000 153.16500000 148.94400000
Fe 186.51600000 153.16500000 157.38900000
Fe 186.51600000 155.27700000 142.61100000
Fe 186.51600000 155.27700000 151.05600000
Fe 186.51600000 155.27700000 159.50100000
Fe 186.51600000 157.38900000 144.72300000
Fe 186.51600000 157.38900000 153.16500000
Fe 186.51600000 159.50100000 146.83500000
Fe 186.51600000 159.50100000 155.27700000
Fe 186.51600000 161.61000000 148.94400000
Fe 187.56900000 139.44600000 147.88800000
Fe 187.56900000 139.44600000 156.33300000
Fe 187.56900000 143.66700000 143.66700000
Fe 187.56900000 143.66700000 152.11200000
Fe 187.56900000 143.66700000 160.55400000
Fe 187.56900000 147.88800000 139.44600000
Fe 187.56900000 147.88800000 147.88800000
Fe 187.56900000 147.88800000 156.33300000
Fe 187.56900000 152.11200000 143.66700000
Fe 187.56900000 152.11200000 152.11200000
Fe 187.56900000 152.11200000 160.55400000
Fe 187.56900000 156.33300000 139.44600000
Fe 187.56900000 156.33300000 147.88800000
Fe 187.56900000 156.33300000 156.33300000
Fe 187.56900000 160.55400000 143.66700000
Fe 187.56900000 160.55400000 152.11200000
Fe 188.62500000 136.27800000 146.83500000
Fe 188.62500000 138.39000000 144.72300000
Fe 188.62500000 138.39000000 153.16500000
Fe 188.62500000 140.49900000 142.61100000
Fe 188.62500000 140.49900000 151.05600000
Fe 188.62500000 140.49900000 159.50100000
Fe 188.62500000 142.61100000 140.49900000
Fe 188.62500000 142.61100000 148.94400000
Fe 188.62500000 142.61100000 157.38900000
Fe 188.62500000 144.72300000 138.39000000
Fe 188.62500000 144.72300000 146.83500000
Fe 188.62500000 144.72300000 155.27700000
Fe 188.62500000 146.83500000 136.27800000
Fe 188.62500000 146.83500000 144.72300000
Fe 188.62500000 146.83500000 153.16500000
Fe 188.62500000 146.83500000 161.61000000
Fe 188.62500000 148.94400000 142.61100000
Fe 188.62500000 148.94400000 151.05600000
Fe 188.62500000 148.94400000 159.50100000
Fe 188.62500000 151.05600000 140.49900000
Fe 188.62500000 151.05600000 148.94400000
Fe 188.62500000 151.05600000 157.38900000
Fe 188.62500000 153.16500000 138.39000000
Fe 188.62500000 153.16500000 146.83500000
Fe 188.62500000 153.16500000 155.27700000
Fe 188.62500000 153.16500000 163.72200000
Fe 188.62500000 155.27700000 144.72300000
Fe 188.62500000 155.27700000 153.16500000
Fe 188.62500000 155.27700000 161.61000000
Fe 188.62500000 157.38900000 142.61100000
Fe 188.62500000 157.38900000 151.05600000
Fe 188.62500000 157.38900000 159.50100000
Fe 188.62500000 159.50100000 140.49900000
Fe 188.62500000 159.50100000 148.94400000
Fe 188.62500000 159.50100000 157.38900000
Fe 188.62500000 161.61000000 146.83500000
Fe 188.62500000 161.61000000 155.27700000
Fe 188.62500000 163.72200000 153.16500000
Fe 189.68100000 137.33400000 141.55500000
Fe 189.68100000 137.33400000 150.00000000
Fe 189.68100000 137.33400000 158.44500000
Fe 189.68100000 141.55500000 137.33400000
Fe 189.68100000 141.55500000 145.77900000
Fe 189.68100000 141.55500000 154.22100000
Fe 189.68100000 141.55500000 162.66600000
Fe 189.68100000 145.77900000 141.55500000
Fe 189.68100000 145.77900000 150.00000000
Fe 189.68100000 145.77900000 158.44500000
Fe 189.68100000 150.00000000 137.33400000
Fe 189.68100000 150.00000000 145.77900000
Fe 189.68100000 150.00000000 154.22100000
Fe 189.68100000 150.00000000 162.66600000
Fe 189.68100000 154.22100000 141.55500000
Fe 189.68100000 154.22100000 150.00000000
Fe 189.68100000 154.22100000 158.44500000
Fe 189.68100000 158.44500000 137.33400000
Fe 189.68100000 158.44500000 145.77900000
Fe 189.68100000 158.44500000 154.22100000
Fe 189.68100000 158.44500000 162.66600000
Fe 189.68100000 162.66600000 141.55500000
Fe 189.68100000 162.66600000 150.00000000
Fe 189.68100000 162.66600000 158.44500000
Fe 190.73700000 140.49900000 140.49900000
Fe 190.73700000 142.61100000 142.61100000
Fe 190.73700000 144.72300000 136.27800000
Fe 190.73700000 136.27800000 144.72300000
Fe 190.73700000 136.27800000 153.16500000
Fe 190.73700000 138.39000000 146.83500000
Fe 190.73700000 138.39000000 155.27700000
Fe 190.73700000 140.49900000 148.94400000
Fe 190.73700000 142.61100000 151.05600000
Fe 190.73700000 144.72300000 144.72300000
Fe 190.73700000 144.72300000 153.16500000
Fe 190.73700000 146.83500000 138.39000000
Fe 190.73700000 148.94400000 140.49900000
Fe 190.73700000 151.05600000 142.61100000
Fe 190.73700000 153.16500000 136.27800000
Fe 190.73700000 155.27700000 138.39000000
Fe 190.73700000 157.38900000 140.49900000
Fe 190.73700000 159.50100000 142.61100000
Fe 190.73700000 140.49900000 157.38900000
Fe 190.73700000 142.61100000 159.50100000
Fe 190.73700000 144.72300000 161.61000000
Fe 190.73700000 146.83500000 146.83500000
Fe 190.73700000 146.83500000 155.27700000
Fe 190.73700000 148.94400000 148.94400000
Fe 190.73700000 151.05600000 151.05600000
Fe 190.73700000 153.16500000 144.72300000
Fe 190.73700000 153.16500000 153.16500000
Fe 190.73700000 155.27700000 146.83500000
Fe 190.73700000 155.27700000 155.27700000
Fe 190.73700000 157.38900000 148.94400000
Fe 190.73700000 159.50100000 151.05600000
Fe 190.73700000 146.83500000 163.72200000
Fe 190.73700000 148.94400000 157.38900000
Fe 190.73700000 151.05600000 159.50100000
Fe 190.73700000 153.16500000 161.61000000
Fe 190.73700000 155.27700000 163.72200000
Fe 190.73700000 157.38900000 157.38900000
Fe 190.73700000 159.50100000 159.50100000
Fe 190.73700000 161.61000000 144.72300000
Fe 190.73700000 161.61000000 153.16500000
Fe 190.73700000 163.72200000 146.83500000
Fe 190.73700000 163.72200000 155.27700000
Fe 191.79300000 135.22200000 147.88800000
Fe 191.79300000 135.22200000 156.33300000
Fe 191.79300000 143.66700000 139.44600000
Fe 191.79300000 147.88800000 135.22200000
Fe 191.79300000 139.44600000 143.66700000
Fe 191.79300000 139.44600000 152.11200000
Fe 191.79300000 143.66700000 147.88800000
Fe 191.79300000 143.66700000 156.33300000
Fe 191.79300000 147.88800000 143.66700000
Fe 191.79300000 147.88800000 152.11200000
Fe 191.79300000 152.11200000 139.44600000
Fe 191.79300000 156.33300000 135.22200000
Fe 191.79300000 160.55400000 139.44600000
Fe 191.79300000 139.44600000 160.55400000
Fe 191.79300000 143.66700000 164.77800000
Fe 191.79300000 147.88800000 160.55400000
Fe 191.79300000 152.11200000 147.88800000
Fe 191.79300000 152.11200000 156.33300000
Fe 191.79300000 156.33300000 143.66700000
Fe 191.79300000 156.33300000 152.11200000
Fe 191.79300000 160.55400000 147.88800000
Fe 191.79300000 160.55400000 156.33300000
Fe 191.79300000 152.11200000 164.77800000
Fe 191.79300000 156.33300000 160.55400000
Fe 191.79300000 164.77800000 143.66700000
Fe 191.79300000 164.77800000 152.11200000
Fe 192.84900000 136.27800000 142.61100000
Fe 192.84900000 138.39000000 140.49900000
Fe 192.84900000 134.16600000 153.16500000
Fe 192.84900000 136.27800000 151.05600000
Fe 192.84900000 138.39000000 148.94400000
Fe 192.84900000 140.49900000 138.39000000
Fe 192.84900000 142.61100000 136.27800000
Fe 192.84900000 144.72300000 142.61100000
Fe 192.84900000 146.83500000 140.49900000
Fe 192.84900000 148.94400000 138.39000000
Fe 192.84900000 151.05600000 136.27800000
Fe 192.84900000 153.16500000 134.16600000
Fe 192.84900000 153.16500000 142.61100000
Fe 192.84900000 138.39000000 157.38900000
Fe 192.84900000 140.49900000 146.83500000
Fe 192.84900000 140.49900000 155.27700000
Fe 192.84900000 142.61100000 144.72300000
Fe 192.84900000 142.61100000 153.16500000
Fe 192.84900000 144.72300000 151.05600000
Fe 192.84900000 146.83500000 148.94400000
Fe 192.84900000 148.94400000 146.83500000
Fe 192.84900000 148.94400000 155.27700000
Fe 192.84900000 151.05600000 144.72300000
Fe 192.84900000 151.05600000 153.16500000
Fe 192.84900000 153.16500000 151.05600000
Fe 192.84900000 155.27700000 140.49900000
Fe 192.84900000 157.38900000 138.39000000
Fe 192.84900000 161.61000000 142.61100000
Fe 192.84900000 142.61100000 161.61000000
Fe 192.84900000 144.72300000 159.50100000
Fe 192.84900000 146.83500000 157.38900000
Fe 192.84900000 146.83500000 165.83400000
Fe 192.84900000 148.94400000 163.72200000
Fe 192.84900000 151.05600000 161.61000000
Fe 192.84900000 153.16500000 159.50100000
Fe 192.84900000 155.27700000 148.94400000
Fe 192.84900000 157.38900000 146.83500000
Fe 192.84900000 157.38900000 155.27700000
Fe 192.84900000 159.50100000 144.72300000
Fe 192.84900000 159.50100000 153.16500000
Fe 192.84900000 161.61000000 151.05600000
Fe 192.84900000 163.72200000 148.94400000
Fe 192.84900000 165.83400000 146.83500000
Fe 192.84900000 155.27700000 157.38900000
Fe 192.84900000 157.38900000 163.72200000
Fe 192.84900000 159.50100000 161.61000000
Fe 192.84900000 161.61000000 159.50100000
Fe 192.84900000 163.72200000 157.38900000
Fe 193.90200000 141.55500000 141.55500000
Fe 193.90200000 133.11300000 150.00000000
Fe 193.90200000 137.33400000 145.77900000
Fe 193.90200000 137.33400000 154.22100000
Fe 193.90200000 141.55500000 150.00000000
Fe 193.90200000 145.77900000 137.33400000
Fe 193.90200000 150.00000000 133.11300000
Fe 193.90200000 150.00000000 141.55500000
Fe 193.90200000 154.22100000 137.33400000
Fe 193.90200000 141.55500000 158.44500000
Fe 193.90200000 145.77900000 145.77900000
Fe 193.90200000 145.77900000 154.22100000
Fe 193.90200000 150.00000000 150.00000000
Fe 193.90200000 154.22100000 145.77900000
Fe 193.90200000 154.22100000 154.22100000
Fe 193.90200000 158.44500000 141.55500000
Fe 193.90200000 145.77900000 162.66600000
Fe 193.90200000 150.00000000 158.44500000
Fe 193.90200000 150.00000000 166.88700000
Fe 193.90200000 154.22100000 162.66600000
Fe 193.90200000 158.44500000 150.00000000
Fe 193.90200000 162.66600000 145.77900000
Fe 193.90200000 162.66600000 154.22100000
Fe 193.90200000 166.88700000 150.00000000
Fe 193.90200000 158.44500000 158.44500000
Fe 194.95800000 140.49900000 136.27800000
Fe 194.95800000 142.61100000 138.39000000
Fe 194.95800000 134.16600000 146.83500000
Fe 194.95800000 136.27800000 140.49900000
Fe 194.95800000 138.39000000 142.61100000
Fe 194.95800000 140.49900000 144.72300000
Fe 194.95800000 146.83500000 134.16600000
Fe 194.95800000 148.94400000 136.27800000
Fe 194.95800000 134.16600000 155.27700000
Fe 194.95800000 136.27800000 148.94400000
Fe 194.95800000 138.39000000 151.05600000
Fe 194.95800000 140.49900000 153.16500000
Fe 194.95800000 142.61100000 146.83500000
Fe 194.95800000 144.72300000 140.49900000
Fe 194.95800000 146.83500000 142.61100000
Fe 194.95800000 148.94400000 144.72300000
Fe 194.95800000 151.05600000 138.39000000
Fe 194.95800000 155.27700000 134.16600000
Fe 194.95800000 136.27800000 157.38900000
Fe 194.95800000 138.39000000 159.50100000
Fe 194.95800000 142.61100000 155.27700000
Fe 194.95800000 144.72300000 148.94400000
Fe 194.95800000 146.83500000 151.05600000
Fe 194.95800000 148.94400000 153.16500000
Fe 194.95800000 153.16500000 140.49900000
Fe 194.95800000 155.27700000 142.61100000
Fe 194.95800000 157.38900000 136.27800000
Fe 194.95800000 159.50100000 138.39000000
Fe 194.95800000 140.49900000 161.61000000
Fe 194.95800000 142.61100000 163.72200000
Fe 194.95800000 144.72300000 157.38900000
Fe 194.95800000 146.83500000 159.50100000
Fe 194.95800000 151.05600000 146.83500000
Fe 194.95800000 153.16500000 148.94400000
Fe 194.95800000 155.27700000 151.05600000
Fe 194.95800000 157.38900000 144.72300000
Fe 194.95800000 161.61000000 140.49900000
Fe 194.95800000 163.72200000 142.61100000
Fe 194.95800000 144.72300000 165.83400000
Fe 194.95800000 148.94400000 161.61000000
Fe 194.95800000 151.05600000 155.27700000
Fe 194.95800000 153.16500000 157.38900000
Fe 194.95800000 155.27700000 159.50100000
Fe 194.95800000 157.38900000 153.16500000
Fe 194.95800000 159.50100000 146.83500000
Fe 194.95800000 161.61000000 148.94400000
Fe 194.95800000 163.72200000 151.05600000
Fe 194.95800000 165.83400000 144.72300000
Fe 194.95800000 151.05600000 163.72200000
Fe 194.95800000 153.16500000 165.83400000
Fe 194.95800000 159.50100000 155.27700000
Fe 194.95800000 161.61000000 157.38900000
Fe 194.95800000 163.72200000 159.50100000
Fe 194.95800000 165.83400000 153.16500000
Fe 194.95800000 157.38900000 161.61000000
Fe 194.95800000 159.50100000 163.72200000
Fe 196.01400000 135.22200000 143.66700000
Fe 196.01400000 143.66700000 135.22200000
Fe 196.01400000 135.22200000 152.11200000
Fe 196.01400000 139.44600000 139.44600000
Fe 196.01400000 143.66700000 143.66700000
Fe 196.01400000 152.11200000 135.22200000
Fe 196.01400000 139.44600000 147.88800000
Fe 196.01400000 143.66700000 152.11200000
Fe 196.01400000 147.88800000 139.44600000
Fe 196.01400000 152.11200000 143.66700000
Fe 196.01400000 139.44600000 156.33300000
Fe 196.01400000 143.66700000 160.55400000
Fe 196.01400000 147.88800000 147.88800000
Fe 196.01400000 152.11200000 152.11200000
Fe 196.01400000 156.33300000 139.44600000
Fe 196.01400000 160.55400000 143.66700000
Fe 196.01400000 147.88800000 156.33300000
Fe 196.01400000 152.11200000 160.55400000
Fe 196.01400000 156.33300000 147.88800000
Fe 196.01400000 160.55400000 152.11200000
Fe 196.01400000 147.88800000 164.77800000
Fe 196.01400000 156.33300000 156.33300000
Fe 196.01400000 160.55400000 160.55400000
Fe 196.01400000 164.77800000 147.88800000
Fe 196.01400000 156.33300000 164.77800000
Fe 196.01400000 164.77800000 156.33300000
Fe 197.07000000 136.27800000 146.83500000
Fe 197.07000000 140.49900000 142.61100000
Fe 197.07000000 142.61100000 140.49900000
Fe 197.07000000 146.83500000 136.27800000
Fe 197.07000000 134.16600000 148.94400000
Fe 197.07000000 138.39000000 144.72300000
Fe 197.07000000 144.72300000 138.39000000
Fe 197.07000000 148.94400000 134.16600000
Fe 197.07000000 136.27800000 155.27700000
Fe 197.07000000 140.49900000 151.05600000
Fe 197.07000000 151.05600000 140.49900000
Fe 197.07000000 155.27700000 136.27800000
Fe 197.07000000 138.39000000 153.16500000
Fe 197.07000000 142.61100000 148.94400000
Fe 197.07000000 144.72300000 146.83500000
Fe 197.07000000 146.83500000 144.72300000
Fe 197.07000000 148.94400000 142.61100000
Fe 197.07000000 153.16500000 138.39000000
Fe 197.07000000 138.39000000 161.61000000
Fe 197.07000000 140.49900000 159.50100000
Fe 197.07000000 142.61100000 157.38900000
Fe 197.07000000 144.72300000 155.27700000
Fe 197.07000000 146.83500000 153.16500000
Fe 197.07000000 148.94400000 151.05600000
Fe 197.07000000 151.05600000 148.94400000
Fe 197.07000000 153.16500000 146.83500000
Fe 197.07000000 155.27700000 144.72300000
Fe 197.07000000 157.38900000 142.61100000
Fe 197.07000000 159.50100000 140.49900000
Fe 197.07000000 161.61000000 138.39000000
Fe 197.07000000 146.83500000 161.61000000
Fe 197.07000000 151.05600000 157.38900000
Fe 197.07000000 153.16500000 155.27700000
Fe 197.07000000 155.27700000 153.16500000
Fe 197.07000000 157.38900000 151.05600000
Fe 197.07000000 161.61000000 146.83500000
Fe 197.07000000 144.72300000 163.72200000
Fe 197.07000000 148.94400000 159.50100000
Fe 197.07000000 159.50100000 148.94400000
Fe 197.07000000 163.72200000 144.72300000
Fe 197.07000000 151.05600000 165.83400000
Fe 197.07000000 155.27700000 161.61000000
Fe 197.07000000 161.61000000 155.27700000
Fe 197.07000000 165.83400000 151.05600000
Fe 197.07000000 153.16500000 163.72200000
Fe 197.07000000 157.38900000 159.50100000
Fe 197.07000000 159.50100000 157.38900000
Fe 197.07000000 163.72200000 153.16500000
Fe 198.12600000 137.33400000 141.55500000
Fe 198.12600000 133.11300000 145.77900000
Fe 198.12600000 141.55500000 137.33400000
Fe 198.12600000 145.77900000 133.11300000
Fe 198.12600000 133.11300000 154.22100000
Fe 198.12600000 137.33400000 150.00000000
Fe 198.12600000 141.55500000 145.77900000
Fe 198.12600000 145.77900000 141.55500000
Fe 198.12600000 150.00000000 137.33400000
Fe 198.12600000 154.22100000 133.11300000
Fe 198.12600000 137.33400000 158.44500000
Fe 198.12600000 141.55500000 154.22100000
Fe 198.12600000 145.77900000 150.00000000
Fe 198.12600000 150.00000000 145.77900000
Fe 198.12600000 154.22100000 141.55500000
Fe 198.12600000 158.44500000 137.33400000
Fe 198.12600000 141.55500000 162.66600000
Fe 198.12600000 145.77900000 158.44500000
Fe 198.12600000 150.00000000 154.22100000
Fe 198.12600000 154.22100000 150.00000000
Fe 198.12600000 158.44500000 145.77900000
Fe 198.12600000 162.66600000 141.55500000
Fe 198.12600000 145.77900000 166.88700000
Fe 198.12600000 150.00000000 162.66600000
Fe 198.12600000 154.22100000 158.44500000
Fe 198.12600000 158.44500000 154.22100000
Fe 198.12600000 162.66600000 150.00000000
Fe 198.12600000 166.88700000 145.77900000
Fe 198.12600000 154.22100000 166.88700000
Fe 198.12600000 158.44500000 162.66600000
Fe 198.12600000 166.88700000 154.22100000
Fe 198.12600000 162.66600000 158.44500000
Fe 199.18200000 138.39000000 138.39000000
Fe 199.18200000 140.49900000 140.49900000
Fe 199.18200000 136.27800000 144.72300000
Fe 199.18200000 144.72300000 136.27800000
Fe 199.18200000 134.16600000 151.05600000
Fe 199.18200000 138.39000000 146.83500000
Fe 199.18200000 142.61100000 142.61100000
Fe 199.18200000 146.83500000 138.39000000
Fe 199.18200000 151.05600000 134.16600000
Fe 199.18200000 136.27800000 153.16500000
Fe 199.18200000 140.49900000 148.94400000
Fe 199.18200000 148.94400000 140.49900000
Fe 199.18200000 153.16500000 136.27800000
Fe 199.18200000 138.39000000 155.27700000
Fe 199.18200000 142.61100000 151.05600000
Fe 199.18200000 144.72300000 144.72300000
Fe 199.18200000 146.83500000 146.83500000
Fe 199.18200000 151.05600000 142.61100000
Fe 199.18200000 155.27700000 138.39000000
Fe 199.18200000 140.49900000 157.38900000
Fe 199.18200000 157.38900000 140.49900000
Fe 199.18200000 144.72300000 153.16500000
Fe 199.18200000 146.83500000 155.27700000
Fe 199.18200000 148.94400000 148.94400000
Fe 199.18200000 151.05600000 151.05600000
Fe 199.18200000 153.16500000 144.72300000
Fe 199.18200000 155.27700000 146.83500000
Fe 199.18200000 142.61100000 159.50100000
Fe 199.18200000 159.50100000 142.61100000
Fe 199.18200000 144.72300000 161.61000000
Fe 199.18200000 148.94400000 157.38900000
Fe 199.18200000 153.16500000 153.16500000
Fe 199.18200000 155.27700000 155.27700000
Fe 199.18200000 157.38900000 148.94400000
Fe 199.18200000 161.61000000 144.72300000
Fe 199.18200000 146.83500000 163.72200000
Fe 199.18200000 151.05600000 159.50100000
Fe 199.18200000 159.50100000 151.05600000
Fe 199.18200000 163.72200000 146.83500000
Fe 199.18200000 148.94400000 165.83400000
Fe 199.18200000 153.16500000 161.61000000
Fe 199.18200000 157.38900000 157.38900000
Fe 199.18200000 161.61000000 153.16500000
Fe 199.18200000 165.83400000 148.94400000
Fe 199.18200000 155.27700000 163.72200000
Fe 199.18200000 163.72200000 155.27700000
Fe 199.18200000 159.50100000 159.50100000
Fe 199.18200000 161.61000000 161.61000000
Fe 200.23500000 135.22200000 147.88800000
Fe 200.23500000 139.44600000 143.66700000
Fe 200.23500000 143.66700000 139.44600000
Fe 200.23500000 147.88800000 135.22200000
Fe 200.23500000 135.22200000 156.33300000
Fe 200.23500000 139.44600000 152.11200000
Fe 200.23500000 143.66700000 147.88800000
Fe 200.23500000 147.88800000 143.66700000
Fe 200.23500000 152.11200000 139.44600000
Fe 200.23500000 156.33300000 135.22200000
Fe 200.23500000 139.44600000 160.55400000
Fe 200.23500000 143.66700000 156.33300000
Fe 200.23500000 147.88800000 152.11200000
Fe 200.23500000 152.11200000 147.88800000
Fe 200.23500000 156.33300000 143.66700000
Fe 200.23500000 160.55400000 139.44600000
Fe 200.23500000 143.66700000 164.77800000
Fe 200.23500000 147.88800000 160.55400000
Fe 200.23500000 152.11200000 156.33300000
Fe 200.23500000 156.33300000 152.11200000
Fe 200.23500000 160.55400000 147.88800000
Fe 200.23500000 164.77800000 143.66700000
Fe 200.23500000 152.11200000 164.77800000
Fe 200.23500000 156.33300000 160.55400000
Fe 200.23500000 160.55400000 156.33300000
Fe 200.23500000 164.77800000 152.11200000
Fe 201.29100000 134.16600000 144.72300000
Fe 201.29100000 140.49900000 138.39000000
Fe 201.29100000 142.61100000 136.27800000
Fe 201.29100000 134.16600000 153.16500000
Fe 201.29100000 136.27800000 142.61100000
Fe 201.29100000 138.39000000 140.49900000
Fe 201.29100000 142.61100000 144.72300000
Fe 201.29100000 144.72300000 134.16600000
Fe 201.29100000 148.94400000 138.39000000
Fe 201.29100000 136.27800000 151.05600000
Fe 201.29100000 138.39000000 148.94400000
Fe 201.29100000 140.49900000 146.83500000
Fe 201.29100000 142.61100000 153.16500000
Fe 201.29100000 144.72300000 142.61100000
Fe 201.29100000 146.83500000 140.49900000
Fe 201.29100000 151.05600000 136.27800000
Fe 201.29100000 153.16500000 134.16600000
Fe 201.29100000 136.27800000 159.50100000
Fe 201.29100000 138.39000000 157.38900000
Fe 201.29100000 140.49900000 155.27700000
Fe 201.29100000 144.72300000 151.05600000
Fe 201.29100000 146.83500000 148.94400000
Fe 201.29100000 148.94400000 146.83500000
Fe 201.29100000 151.05600000 144.72300000
Fe 201.29100000 153.16500000 142.61100000
Fe 201.29100000 155.27700000 140.49900000
Fe 201.29100000 157.38900000 138.39000000
Fe 201.29100000 159.50100000 136.27800000
Fe 201.29100000 140.49900000 163.72200000
Fe 201.29100000 142.61100000 161.61000000
Fe 201.29100000 144.72300000 159.50100000
Fe 201.29100000 146.83500000 157.38900000
Fe 201.29100000 148.94400000 155.27700000
Fe 201.29100000 151.05600000 153.16500000
Fe 201.29100000 153.16500000 151.05600000
Fe 201.29100000 155.27700000 148.94400000
Fe 201.29100000 159.50100000 144.72300000
Fe 201.29100000 161.61000000 142.61100000
Fe 201.29100000 163.72200000 140.49900000
Fe 201.29100000 146.83500000 165.83400000
Fe 201.29100000 148.94400000 163.72200000
Fe 201.29100000 153.16500000 159.50100000
Fe 201.29100000 155.27700000 157.38900000
Fe 201.29100000 157.38900000 146.83500000
Fe 201.29100000 159.50100000 153.16500000
Fe 201.29100000 161.61000000 151.05600000
Fe 201.29100000 163.72200000 148.94400000
Fe 201.29100000 151.05600000 161.61000000
Fe 201.29100000 155.27700000 165.83400000
Fe 201.29100000 157.38900000 155.27700000
Fe 201.29100000 161.61000000 159.50100000
Fe 201.29100000 163.72200000 157.38900000
Fe 201.29100000 165.83400000 146.83500000
Fe 201.29100000 157.38900000 163.72200000
Fe 201.29100000 159.50100000 161.61000000
Fe 201.29100000 165.83400000 155.27700000
Fe 202.34700000 141.55500000 141.55500000
Fe 202.34700000 133.11300000 150.00000000
Fe 202.34700000 137.33400000 145.77900000
Fe 202.34700000 137.33400000 154.22100000
Fe 202.34700000 141.55500000 150.00000000
Fe 202.34700000 145.77900000 137.33400000
Fe 202.34700000 150.00000000 133.11300000
Fe 202.34700000 150.00000000 141.55500000
Fe 202.34700000 154.22100000 137.33400000
Fe 202.34700000 141.55500000 158.44500000
Fe 202.34700000 145.77900000 145.77900000
Fe 202.34700000 145.77900000 154.22100000
Fe 202.34700000 150.00000000 150.00000000
Fe 202.34700000 154.22100000 145.77900000
Fe 202.34700000 154.22100000 154.22100000
Fe 202.34700000 158.44500000 141.55500000
Fe 202.34700000 145.77900000 162.66600000
Fe 202.34700000 150.00000000 158.44500000
Fe 202.34700000 150.00000000 166.88700000
Fe 202.34700000 154.22100000 162.66600000
Fe 202.34700000 158.44500000 150.00000000
Fe 202.34700000 162.66600000 145.77900000
Fe 202.34700000 162.66600000 154.22100000
Fe 202.34700000 166.88700000 150.00000000
Fe 202.34700000 158.44500000 158.44500000
Fe 203.40300000 138.39000000 142.61100000
Fe 203.40300000 142.61100000 138.39000000
Fe 203.40300000 144.72300000 140.49900000
Fe 203.40300000 134.16600000 146.83500000
Fe 203.40300000 136.27800000 148.94400000
Fe 203.40300000 138.39000000 151.05600000
Fe 203.40300000 140.49900000 144.72300000
Fe 203.40300000 140.49900000 153.16500000
Fe 203.40300000 142.61100000 146.83500000
Fe 203.40300000 142.61100000 155.27700000
Fe 203.40300000 144.72300000 148.94400000
Fe 203.40300000 146.83500000 134.16600000
Fe 203.40300000 146.83500000 142.61100000
Fe 203.40300000 148.94400000 136.27800000
Fe 203.40300000 151.05600000 138.39000000
Fe 203.40300000 153.16500000 140.49900000
Fe 203.40300000 155.27700000 142.61100000
Fe 203.40300000 157.38900000 136.27800000
Fe 203.40300000 159.50100000 138.39000000
Fe 203.40300000 136.27800000 157.38900000
Fe 203.40300000 138.39000000 159.50100000
Fe 203.40300000 140.49900000 161.61000000
Fe 203.40300000 142.61100000 163.72200000
Fe 203.40300000 144.72300000 157.38900000
Fe 203.40300000 146.83500000 151.05600000
Fe 203.40300000 148.94400000 144.72300000
Fe 203.40300000 148.94400000 153.16500000
Fe 203.40300000 151.05600000 146.83500000
Fe 203.40300000 151.05600000 155.27700000
Fe 203.40300000 153.16500000 148.94400000
Fe 203.40300000 155.27700000 151.05600000
Fe 203.40300000 157.38900000 144.72300000
Fe 203.40300000 157.38900000 153.16500000
Fe 203.40300000 159.50100000 146.83500000
Fe 203.40300000 159.50100000 155.27700000
Fe 203.40300000 161.61000000 140.49900000
Fe 203.40300000 163.72200000 142.61100000
Fe 203.40300000 146.83500000 159.50100000
Fe 203.40300000 148.94400000 161.61000000
Fe 203.40300000 151.05600000 163.72200000
Fe 203.40300000 153.16500000 157.38900000
Fe 203.40300000 153.16500000 165.83400000
Fe 203.40300000 155.27700000 159.50100000
Fe 203.40300000 157.38900000 161.61000000
Fe 203.40300000 161.61000000 148.94400000
Fe 203.40300000 163.72200000 151.05600000
Fe 203.40300000 165.83400000 153.16500000
Fe 203.40300000 161.61000000 157.38900000
Fe 204.45900000 135.22200000 143.66700000
Fe 204.45900000 135.22200000 152.11200000
Fe 204.45900000 139.44600000 139.44600000
Fe 204.45900000 143.66700000 135.22200000
Fe 204.45900000 147.88800000 139.44600000
Fe 204.45900000 139.44600000 147.88800000
Fe 204.45900000 139.44600000 156.33300000
Fe 204.45900000 143.66700000 143.66700000
Fe 204.45900000 143.66700000 152.11200000
Fe 204.45900000 147.88800000 147.88800000
Fe 204.45900000 147.88800000 156.33300000
Fe 204.45900000 152.11200000 135.22200000
Fe 204.45900000 156.33300000 139.44600000
Fe 204.45900000 143.66700000 160.55400000
Fe 204.45900000 147.88800000 164.77800000
Fe 204.45900000 152.11200000 143.66700000
Fe 204.45900000 152.11200000 152.11200000
Fe 204.45900000 156.33300000 147.88800000
Fe 204.45900000 156.33300000 156.33300000
Fe 204.45900000 160.55400000 143.66700000
Fe 204.45900000 160.55400000 152.11200000
Fe 204.45900000 152.11200000 160.55400000
Fe 204.45900000 156.33300000 164.77800000
Fe 204.45900000 160.55400000 160.55400000
Fe 204.45900000 164.77800000 147.88800000
Fe 204.45900000 164.77800000 156.33300000
Fe 205.51500000 136.27800000 146.83500000
Fe 205.51500000 136.27800000 155.27700000
Fe 205.51500000 138.39000000 144.72300000
Fe 205.51500000 138.39000000 153.16500000
Fe 205.51500000 140.49900000 142.61100000
Fe 205.51500000 142.61100000 140.49900000
Fe 205.51500000 144.72300000 138.39000000
Fe 205.51500000 146.83500000 136.27800000
Fe 205.51500000 148.94400000 142.61100000
Fe 205.51500000 151.05600000 140.49900000
Fe 205.51500000 153.16500000 138.39000000
Fe 205.51500000 140.49900000 151.05600000
Fe 205.51500000 142.61100000 148.94400000
Fe 205.51500000 144.72300000 146.83500000
Fe 205.51500000 144.72300000 155.27700000
Fe 205.51500000 146.83500000 144.72300000
Fe 205.51500000 146.83500000 153.16500000
Fe 205.51500000 148.94400000 151.05600000
Fe 205.51500000 151.05600000 148.94400000
Fe 205.51500000 153.16500000 146.83500000
Fe 205.51500000 153.16500000 155.27700000
Fe 205.51500000 155.27700000 136.27800000
Fe 205.51500000 157.38900000 142.61100000
Fe 205.51500000 159.50100000 140.49900000
Fe 205.51500000 140.49900000 159.50100000
Fe 205.51500000 142.61100000 157.38900000
Fe 205.51500000 144.72300000 163.72200000
Fe 205.51500000 146.83500000 161.61000000
Fe 205.51500000 148.94400000 159.50100000
Fe 205.51500000 151.05600000 157.38900000
Fe 205.51500000 153.16500000 163.72200000
Fe 205.51500000 155.27700000 144.72300000
Fe 205.51500000 155.27700000 153.16500000
Fe 205.51500000 157.38900000 151.05600000
Fe 205.51500000 159.50100000 148.94400000
Fe 205.51500000 161.61000000 146.83500000
Fe 205.51500000 161.61000000 155.27700000
Fe 205.51500000 163.72200000 144.72300000
Fe 205.51500000 163.72200000 153.16500000
Fe 205.51500000 155.27700000 161.61000000
Fe 205.51500000 157.38900000 159.50100000
Fe 205.51500000 159.50100000 157.38900000
Fe 206.56800000 137.33400000 141.55500000
Fe 206.56800000 137.33400000 150.00000000
Fe 206.56800000 137.33400000 158.44500000
Fe 206.56800000 141.55500000 137.33400000
Fe 206.56800000 141.55500000 145.77900000
Fe 206.56800000 141.55500000 154.22100000
Fe 206.56800000 141.55500000 162.66600000
Fe 206.56800000 145.77900000 141.55500000
Fe 206.56800000 145.77900000 150.00000000
Fe 206.56800000 145.77900000 158.44500000
Fe 206.56800000 150.00000000 137.33400000
Fe 206.56800000 150.00000000 145.77900000
Fe 206.56800000 150.00000000 154.22100000
Fe 206.56800000 150.00000000 162.66600000
Fe 206.56800000 154.22100000 141.55500000
Fe 206.56800000 154.22100000 150.00000000
Fe 206.56800000 154.22100000 158.44500000
Fe 206.56800000 158.44500000 137.33400000
Fe 206.56800000 158.44500000 145.77900000
Fe 206.56800000 158.44500000 154.22100000
Fe 206.56800000 158.44500000 162.66600000
Fe 206.56800000 162.66600000 141.55500000
Fe 206.56800000 162.66600000 150.00000000
Fe 206.56800000 162.66600000 158.44500000
Fe 207.62400000 136.27800000 153.16500000
Fe 207.62400000 138.39000000 146.83500000
Fe 207.62400000 138.39000000 155.27700000
Fe 207.62400000 140.49900000 140.49900000
Fe 207.62400000 140.49900000 148.94400000
Fe 207.62400000 140.49900000 157.38900000
Fe 207.62400000 142.61100000 142.61100000
Fe 207.62400000 142.61100000 151.05600000
Fe 207.62400000 142.61100000 159.50100000
Fe 207.62400000 144.72300000 144.72300000
Fe 207.62400000 144.72300000 153.16500000
Fe 207.62400000 144.72300000 161.61000000
Fe 207.62400000 146.83500000 138.39000000
Fe 207.62400000 146.83500000 146.83500000
Fe 207.62400000 146.83500000 155.27700000
Fe 207.62400000 146.83500000 163.72200000
Fe 207.62400000 148.94400000 140.49900000
Fe 207.62400000 148.94400000 148.94400000
Fe 207.62400000 148.94400000 157.38900000
Fe 207.62400000 151.05600000 142.61100000
Fe 207.62400000 151.05600000 151.05600000
Fe 207.62400000 151.05600000 159.50100000
Fe 207.62400000 153.16500000 136.27800000
Fe 207.62400000 153.16500000 144.72300000
Fe 207.62400000 153.16500000 153.16500000
Fe 207.62400000 153.16500000 161.61000000
Fe 207.62400000 155.27700000 138.39000000
Fe 207.62400000 155.27700000 146.83500000
Fe 207.62400000 155.27700000 155.27700000
Fe 207.62400000 157.38900000 140.49900000
Fe 207.62400000 157.38900000 148.94400000
Fe 207.62400000 157.38900000 157.38900000
Fe 207.62400000 159.50100000 142.61100000
Fe 207.62400000 159.50100000 151.05600000
Fe 207.62400000 159.50100000 159.50100000
Fe 207.62400000 161.61000000 144.72300000
Fe 207.62400000 161.61000000 153.16500000
Fe 207.62400000 163.72200000 146.83500000
Fe 208.68000000 139.44600000 143.66700000
Fe 208.68000000 139.44600000 152.11200000
Fe 208.68000000 143.66700000 139.44600000
Fe 208.68000000 143.66700000 147.88800000
Fe 208.68000000 143.66700000 156.33300000
Fe 208.68000000 147.88800000 143.66700000
Fe 208.68000000 147.88800000 152.11200000
Fe 208.68000000 147.88800000 160.55400000
Fe 208.68000000 152.11200000 139.44600000
Fe 208.68000000 152.11200000 147.88800000
Fe 208.68000000 152.11200000 156.33300000
Fe 208.68000000 156.33300000 143.66700000
Fe 208.68000000 156.33300000 152.11200000
Fe 208.68000000 156.33300000 160.55400000
Fe 208.68000000 160.55400000 147.88800000
Fe 208.68000000 160.55400000 156.33300000
Fe 209.73600000 138.39000000 148.94400000
Fe 209.73600000 140.49900000 146.83500000
Fe 209.73600000 140.49900000 155.27700000
Fe 209.73600000 142.61100000 144.72300000
Fe 209.73600000 142.61100000 153.16500000
Fe 209.73600000 144.72300000 142.61100000
Fe 209.73600000 144.72300000 151.05600000
Fe 209.73600000 144.72300000 159.50100000
Fe 209.73600000 146.83500000 140.49900000
Fe 209.73600000 146.83500000 148.94400000
Fe 209.73600000 146.83500000 157.38900000
Fe 209.73600000 148.94400000 138.39000000
Fe 209.73600000 148.94400000 146.83500000
Fe 209.73600000 148.94400000 155.27700000
Fe 209.73600000 151.05600000 144.72300000
Fe 209.73600000 151.05600000 153.16500000
Fe 209.73600000 151.05600000 161.61000000
Fe 209.73600000 153.16500000 142.61100000
Fe 209.73600000 153.16500000 151.05600000
Fe 209.73600000 153.16500000 159.50100000
Fe 209.73600000 155.27700000 140.49900000
Fe 209.73600000 155.27700000 148.94400000
Fe 209.73600000 155.27700000 157.38900000
Fe 209.73600000 157.38900000 146.83500000
Fe 209.73600000 157.38900000 155.27700000
Fe 209.73600000 159.50100000 144.72300000
Fe 209.73600000 159.50100000 153.16500000
Fe 209.73600000 161.61000000 151.05600000
Fe 210.79200000 141.55500000 141.55500000
Fe 210.79200000 141.55500000 150.00000000
Fe 210.79200000 141.55500000 158.44500000
Fe 210.79200000 145.77900000 145.77900000
Fe 210.79200000 145.77900000 154.22100000
Fe 210.79200000 150.00000000 141.55500000
Fe 210.79200000 150.00000000 150.00000000
Fe 210.79200000 150.00000000 158.44500000
Fe 210.79200000 154.22100000 145.77900000
Fe 210.79200000 154.22100000 154.22100000
Fe 210.79200000 158.44500000 150.00000000
Fe 211.84800000 140.49900000 153.16500000
Fe 211.84800000 142.61100000 146.83500000
Fe 211.84800000 142.61100000 155.27700000
Fe 211.84800000 144.72300000 148.94400000
Fe 211.84800000 144.72300000 157.38900000
Fe 211.84800000 146.83500000 142.61100000
Fe 211.84800000 146.83500000 151.05600000
Fe 211.84800000 146.83500000 159.50100000
Fe 211.84800000 148.94400000 144.72300000
Fe 211.84800000 148.94400000 153.16500000
Fe 211.84800000 151.05600000 146.83500000
Fe 211.84800000 151.05600000 155.27700000
Fe 211.84800000 153.16500000 140.49900000
Fe 211.84800000 153.16500000 148.94400000
Fe 211.84800000 153.16500000 157.38900000
Fe 211.84800000 155.27700000 142.61100000
Fe 211.84800000 155.27700000 151.05600000
Fe 211.84800000 157.38900000 144.72300000
Fe 211.84800000 157.38900000 153.16500000
Fe 211.84800000 159.50100000 146.83500000
Fe 212.90100000 143.66700000 143.66700000
Fe 212.90100000 143.66700000 152.11200000
Fe 212.90100000 147.88800000 147.88800000
Fe 212.90100000 147.88800000 156.33300000
Fe 212.90100000 152.11200000 143.66700000
Fe 212.90100000 152.11200000 152.11200000
Fe 212.90100000 156.33300000 147.88800000
Fe 212.90100000 156.33300000 156.33300000
Fe 213.95700000 144.72300000 146.83500000
Fe 213.95700000 146.83500000 144.72300000
Fe 213.95700000 146.83500000 153.16500000
Fe 213.95700000 148.94400000 151.05600000
Fe 213.95700000 151.05600000 148.94400000
Fe 213.95700000 153.16500000 146.83500000
Fe 213.95700000 153.16500000 155.27700000
Fe 213.95700000 155.27700000 153.16500000
Fe 215.01300000 145.77900000 150.00000000
O 182.23800000 144.77700000 146.78100000
O 182.23800000 146.78100000 144.77700000
O 182.23800000 146.78100000 153.21900000
O 182.23800000 148.99800000 151.00200000
O 182.23800000 151.00200000 148.99800000
O 182.23800000 153.21900000 146.78100000
O 182.23800000 153.21900000 155.22300000
O 182.23800000 155.22300000 153.21900000
O 182.34600000 144.66900000 151.11000000
O 182.34600000 146.88600000 148.89000000
O 182.34600000 148.89000000 146.88600000
O 182.34600000 148.89000000 155.33100000
O 182.34600000 151.11000000 144.66900000
O 182.34600000 151.11000000 153.11400000
O 182.34600000 153.11400000 151.11000000
O 182.34600000 155.33100000 148.89000000
O 184.35000000 140.44800000 148.89000000
O 184.35000000 142.66500000 142.66500000
O 184.35000000 142.66500000 151.11000000
O 184.35000000 144.66900000 144.66900000
O 184.35000000 144.66900000 153.11400000
O 184.35000000 146.88600000 146.88600000
O 184.35000000 146.88600000 155.33100000
O 184.35000000 148.89000000 140.44800000
O 184.35000000 148.89000000 148.89000000
O 184.35000000 148.89000000 157.33500000
O 184.35000000 151.11000000 142.66500000
O 184.35000000 151.11000000 151.11000000
O 184.35000000 151.11000000 159.55200000
O 184.35000000 153.11400000 144.66900000
O 184.35000000 153.11400000 153.11400000
O 184.35000000 155.33100000 146.88600000
O 184.35000000 155.33100000 155.33100000
O 184.35000000 157.33500000 148.89000000
O 184.35000000 157.33500000 157.33500000
O 184.35000000 159.55200000 151.11000000
O 184.45800000 140.55300000 144.77700000
O 184.45800000 140.55300000 153.21900000
O 184.45800000 142.55700000 146.78100000
O 184.45800000 142.55700000 155.22300000
O 184.45800000 144.77700000 140.55300000
O 184.45800000 144.77700000 148.99800000
O 184.45800000 144.77700000 157.44300000
O 184.45800000 146.78100000 142.55700000
O 184.45800000 146.78100000 151.00200000
O 184.45800000 146.78100000 159.44700000
O 184.45800000 148.99800000 144.77700000
O 184.45800000 148.99800000 153.21900000
O 184.45800000 151.00200000 146.78100000
O 184.45800000 151.00200000 155.22300000
O 184.45800000 153.21900000 140.55300000
O 184.45800000 153.21900000 148.99800000
O 184.45800000 153.21900000 157.44300000
O 184.45800000 155.22300000 142.55700000
O 184.45800000 155.22300000 151.00200000
O 184.45800000 155.22300000 159.44700000
O 184.45800000 157.44300000 144.77700000
O 184.45800000 157.44300000 153.21900000
O 184.45800000 159.44700000 146.78100000
O 184.45800000 159.44700000 155.22300000
O 186.46200000 138.33600000 148.99800000
O 186.46200000 140.55300000 146.78100000
O 186.46200000 140.55300000 155.22300000
O 186.46200000 142.55700000 144.77700000
O 186.46200000 142.55700000 153.21900000
O 186.46200000 144.77700000 142.55700000
O 186.46200000 144.77700000 151.00200000
O 186.46200000 144.77700000 159.44700000
O 186.46200000 146.78100000 140.55300000
O 186.46200000 146.78100000 148.99800000
O 186.46200000 146.78100000 157.44300000
O 186.46200000 148.99800000 138.33600000
O 186.46200000 148.99800000 146.78100000
O 186.46200000 148.99800000 155.22300000
O 186.46200000 151.00200000 144.77700000
O 186.46200000 151.00200000 153.21900000
O 186.46200000 151.00200000 161.66400000
O 186.46200000 153.21900000 142.55700000
O 186.46200000 153.21900000 151.00200000
O 186.46200000 153.21900000 159.44700000
O 186.46200000 155.22300000 140.55300000
O 186.46200000 155.22300000 148.99800000
O 186.46200000 155.22300000 157.44300000
O 186.46200000 157.44300000 146.78100000
O 186.46200000 157.44300000 155.22300000
O 186.46200000 159.44700000 144.77700000
O 186.46200000 159.44700000 153.21900000
O 186.46200000 161.66400000 151.00200000
O 186.56700000 138.44400000 144.66900000
O 186.56700000 138.44400000 153.11400000
O 186.56700000 140.44800000 142.66500000
O 186.56700000 140.44800000 151.11000000
O 186.56700000 142.66500000 140.44800000
O 186.56700000 142.66500000 148.89000000
O 186.56700000 142.66500000 157.33500000
O 186.56700000 144.66900000 138.44400000
O 186.56700000 144.66900000 146.88600000
O 186.56700000 144.66900000 155.33100000
O 186.56700000 146.88600000 144.66900000
O 186.56700000 146.88600000 153.11400000
O 186.56700000 146.88600000 161.55600000
O 186.56700000 148.89000000 142.66500000
O 186.56700000 148.89000000 151.11000000
O 186.56700000 148.89000000 159.55200000
O 186.56700000 151.11000000 140.44800000
O 186.56700000 151.11000000 148.89000000
O 186.56700000 151.11000000 157.33500000
O 186.56700000 153.11400000 138.44400000
O 186.56700000 153.11400000 146.88600000
O 186.56700000 153.11400000 155.33100000
O 186.56700000 155.33100000 144.66900000
O 186.56700000 155.33100000 153.11400000
O 186.56700000 155.33100000 161.55600000
O 186.56700000 157.33500000 142.66500000
O 186.56700000 157.33500000 151.11000000
O 186.56700000 157.33500000 159.55200000
O 186.56700000 159.55200000 148.89000000
O 186.56700000 159.55200000 157.33500000
O 186.56700000 161.55600000 146.88600000
O 186.56700000 161.55600000 155.33100000
O 188.57100000 136.22400000 148.89000000
O 188.57100000 138.44400000 142.66500000
O 188.57100000 138.44400000 151.11000000
O 188.57100000 140.44800000 144.66900000
O 188.57100000 140.44800000 153.11400000
O 188.57100000 142.66500000 138.44400000
O 188.57100000 142.66500000 146.88600000
O 188.57100000 142.66500000 155.33100000
O 188.57100000 144.66900000 140.44800000
O 188.57100000 144.66900000 148.89000000
O 188.57100000 144.66900000 157.33500000
O 188.57100000 146.88600000 142.66500000
O 188.57100000 146.88600000 151.11000000
O 188.57100000 146.88600000 159.55200000
O 188.57100000 148.89000000 136.22400000
O 188.57100000 148.89000000 144.66900000
O 188.57100000 148.89000000 153.11400000
O 188.57100000 148.89000000 161.55600000
O 188.57100000 151.11000000 138.44400000
O 188.57100000 151.11000000 146.88600000
O 188.57100000 151.11000000 155.33100000
O 188.57100000 151.11000000 163.77600000
O 188.57100000 153.11400000 140.44800000
O 188.57100000 153.11400000 148.89000000
O 188.57100000 153.11400000 157.33500000
O 188.57100000 155.33100000 142.66500000
O 188.57100000 155.33100000 151.11000000
O 188.57100000 155.33100000 159.55200000
O 188.57100000 157.33500000 144.66900000
O 188.57100000 157.33500000 153.11400000
O 188.57100000 157.33500000 161.55600000
O 188.57100000 159.55200000 146.88600000
O 188.57100000 159.55200000 155.33100000
O 188.57100000 161.55600000 148.89000000
O 188.57100000 161.55600000 157.33500000
O 188.57100000 163.77600000 151.11000000
O 188.67900000 136.33200000 144.77700000
O 188.67900000 136.33200000 153.21900000
O 188.67900000 138.33600000 146.78100000
O 188.67900000 138.33600000 155.22300000
O 188.67900000 140.55300000 140.55300000
O 188.67900000 140.55300000 148.99800000
O 188.67900000 140.55300000 157.44300000
O 188.67900000 142.55700000 142.55700000
O 188.67900000 142.55700000 151.00200000
O 188.67900000 142.55700000 159.44700000
O 188.67900000 144.77700000 136.33200000
O 188.67900000 144.77700000 144.77700000
O 188.67900000 144.77700000 153.21900000
O 188.67900000 144.77700000 161.66400000
O 188.67900000 146.78100000 138.33600000
O 188.67900000 146.78100000 146.78100000
O 188.67900000 146.78100000 155.22300000
O 188.67900000 146.78100000 163.66800000
O 188.67900000 148.99800000 140.55300000
O 188.67900000 148.99800000 148.99800000
O 188.67900000 148.99800000 157.44300000
O 188.67900000 151.00200000 142.55700000
O 188.67900000 151.00200000 151.00200000
O 188.67900000 151.00200000 159.44700000
O 188.67900000 153.21900000 136.33200000
O 188.67900000 153.21900000 144.77700000
O 188.67900000 153.21900000 153.21900000
O 188.67900000 153.21900000 161.66400000
O 188.67900000 155.22300000 138.33600000
O 188.67900000 155.22300000 146.78100000
O 188.67900000 155.22300000 155.22300000
O 188.67900000 155.22300000 163.66800000
O 188.67900000 157.44300000 140.55300000
O 188.67900000 157.44300000 148.99800000
O 188.67900000 157.44300000 157.44300000
O 188.67900000 159.44700000 142.55700000
O 188.67900000 159.44700000 151.00200000
O 188.67900000 159.44700000 159.44700000
O 188.67900000 161.66400000 144.77700000
O 188.67900000 161.66400000 153.21900000
O 188.67900000 163.66800000 146.78100000
O 188.67900000 163.66800000 155.22300000
O 190.68300000 140.55300000 142.55700000
O 190.68300000 142.55700000 140.55300000
O 190.68300000 144.77700000 138.33600000
O 190.68300000 146.78100000 136.33200000
O 190.68300000 136.33200000 146.78100000
O 190.68300000 136.33200000 155.22300000
O 190.68300000 138.33600000 144.77700000
O 190.68300000 138.33600000 153.21900000
O 190.68300000 140.55300000 151.00200000
O 190.68300000 142.55700000 148.99800000
O 190.68300000 144.77700000 146.78100000
O 190.68300000 144.77700000 155.22300000
O 190.68300000 146.78100000 144.77700000
O 190.68300000 146.78100000 153.21900000
O 190.68300000 148.99800000 142.55700000
O 190.68300000 151.00200000 140.55300000
O 190.68300000 153.21900000 138.33600000
O 190.68300000 155.22300000 136.33200000
O 190.68300000 157.44300000 142.55700000
O 190.68300000 159.44700000 140.55300000
O 190.68300000 140.55300000 159.44700000
O 190.68300000 142.55700000 157.44300000
O 190.68300000 144.77700000 163.66800000
O 190.68300000 146.78100000 161.66400000
O 190.68300000 148.99800000 151.00200000
O 190.68300000 151.00200000 148.99800000
O 190.68300000 153.21900000 146.78100000
O 190.68300000 153.21900000 155.22300000
O 190.68300000 155.22300000 144.77700000
O 190.68300000 155.22300000 153.21900000
O 190.68300000 157.44300000 151.00200000
O 190.68300000 159.44700000 148.99800000
O 190.68300000 161.66400000 146.78100000
O 190.68300000 161.66400000 155.22300000
O 190.68300000 148.99800000 159.44700000
O 190.68300000 151.00200000 157.44300000
O 190.68300000 153.21900000 163.66800000
O 190.68300000 155.22300000 161.66400000
O 190.68300000 157.44300000 159.44700000
O 190.68300000 159.44700000 157.44300000
O 190.68300000 163.66800000 144.77700000
O 190.68300000 163.66800000 153.21900000
O 190.79100000 136.22400000 142.66500000
O 190.79100000 138.44400000 140.44800000
O 190.79100000 140.44800000 138.44400000
O 190.79100000 142.66500000 136.22400000
O 190.79100000 144.66900000 142.66500000
O 190.79100000 136.22400000 151.11000000
O 190.79100000 138.44400000 148.89000000
O 190.79100000 140.44800000 146.88600000
O 190.79100000 140.44800000 155.33100000
O 190.79100000 142.66500000 144.66900000
O 190.79100000 142.66500000 153.11400000
O 190.79100000 144.66900000 151.11000000
O 190.79100000 146.88600000 140.44800000
O 190.79100000 148.89000000 138.44400000
O 190.79100000 151.11000000 136.22400000
O 190.79100000 153.11400000 142.66500000
O 190.79100000 155.33100000 140.44800000
O 190.79100000 157.33500000 138.44400000
O 190.79100000 138.44400000 157.33500000
O 190.79100000 142.66500000 161.55600000
O 190.79100000 144.66900000 159.55200000
O 190.79100000 146.88600000 148.89000000
O 190.79100000 148.89000000 146.88600000
O 190.79100000 148.89000000 155.33100000
O 190.79100000 151.11000000 144.66900000
O 190.79100000 151.11000000 153.11400000
O 190.79100000 153.11400000 151.11000000
O 190.79100000 155.33100000 148.89000000
O 190.79100000 157.33500000 146.88600000
O 190.79100000 157.33500000 155.33100000
O 190.79100000 159.55200000 144.66900000
O 190.79100000 159.55200000 153.11400000
O 190.79100000 161.55600000 142.66500000
O 190.79100000 146.88600000 157.33500000
O 190.79100000 148.89000000 163.77600000
O 190.79100000 151.11000000 161.55600000
O 190.79100000 153.11400000 159.55200000
O 190.79100000 155.33100000 157.33500000
O 190.79100000 157.33500000 163.77600000
O 190.79100000 159.55200000 161.55600000
O 190.79100000 161.55600000 151.11000000
O 190.79100000 163.77600000 148.89000000
O 190.79100000 161.55600000 159.55200000
O 190.79100000 163.77600000 157.33500000
O 192.79500000 138.44400000 138.44400000
O 192.79500000 134.22000000 151.11000000
O 192.79500000 136.22400000 144.66900000
O 192.79500000 136.22400000 153.11400000
O 192.79500000 138.44400000 146.88600000
O 192.79500000 138.44400000 155.33100000
O 192.79500000 140.44800000 140.44800000
O 192.79500000 142.66500000 142.66500000
O 192.79500000 144.66900000 136.22400000
O 192.79500000 146.88600000 138.44400000
O 192.79500000 148.89000000 140.44800000
O 192.79500000 151.11000000 134.22000000
O 192.79500000 151.11000000 142.66500000
O 192.79500000 153.11400000 136.22400000
O 192.79500000 140.44800000 148.89000000
O 192.79500000 142.66500000 151.11000000
O 192.79500000 144.66900000 144.66900000
O 192.79500000 144.66900000 153.11400000
O 192.79500000 146.88600000 146.88600000
O 192.79500000 146.88600000 155.33100000
O 192.79500000 148.89000000 148.89000000
O 192.79500000 151.11000000 151.11000000
O 192.79500000 153.11400000 144.66900000
O 192.79500000 153.11400000 153.11400000
O 192.79500000 155.33100000 138.44400000
O 192.79500000 157.33500000 140.44800000
O 192.79500000 159.55200000 142.66500000
O 192.79500000 140.44800000 157.33500000
O 192.79500000 142.66500000 159.55200000
O 192.79500000 144.66900000 161.55600000
O 192.79500000 146.88600000 163.77600000
O 192.79500000 148.89000000 157.33500000
O 192.79500000 148.89000000 165.78000000
O 192.79500000 151.11000000 159.55200000
O 192.79500000 153.11400000 161.55600000
O 192.79500000 155.33100000 146.88600000
O 192.79500000 155.33100000 155.33100000
O 192.79500000 157.33500000 148.89000000
O 192.79500000 159.55200000 151.11000000
O 192.79500000 161.55600000 144.66900000
O 192.79500000 161.55600000 153.11400000
O 192.79500000 163.77600000 146.88600000
O 192.79500000 163.77600000 155.33100000
O 192.79500000 165.78000000 148.89000000
O 192.79500000 155.33100000 163.77600000
O 192.79500000 157.33500000 157.33500000
O 192.79500000 159.55200000 159.55200000
O 192.79500000 161.55600000 161.55600000
O 192.90000000 136.33200000 140.55300000
O 192.90000000 134.11500000 146.78100000
O 192.90000000 136.33200000 148.99800000
O 192.90000000 138.33600000 142.55700000
O 192.90000000 140.55300000 136.33200000
O 192.90000000 142.55700000 138.33600000
O 192.90000000 144.77700000 140.55300000
O 192.90000000 146.78100000 134.11500000
O 192.90000000 146.78100000 142.55700000
O 192.90000000 148.99800000 136.33200000
O 192.90000000 151.00200000 138.33600000
O 192.90000000 136.33200000 157.44300000
O 192.90000000 138.33600000 151.00200000
O 192.90000000 140.55300000 144.77700000
O 192.90000000 140.55300000 153.21900000
O 192.90000000 142.55700000 146.78100000
O 192.90000000 142.55700000 155.22300000
O 192.90000000 144.77700000 148.99800000
O 192.90000000 146.78100000 151.00200000
O 192.90000000 148.99800000 144.77700000
O 192.90000000 148.99800000 153.21900000
O 192.90000000 151.00200000 146.78100000
O 192.90000000 151.00200000 155.22300000
O 192.90000000 153.21900000 140.55300000
O 192.90000000 155.22300000 142.55700000
O 192.90000000 157.44300000 136.33200000
O 192.90000000 159.44700000 138.33600000
O 192.90000000 161.66400000 140.55300000
O 192.90000000 163.66800000 142.55700000
O 192.90000000 138.33600000 159.44700000
O 192.90000000 140.55300000 161.66400000
O 192.90000000 142.55700000 163.66800000
O 192.90000000 144.77700000 157.44300000
O 192.90000000 146.78100000 159.44700000
O 192.90000000 148.99800000 161.66400000
O 192.90000000 151.00200000 163.66800000
O 192.90000000 153.21900000 148.99800000
O 192.90000000 155.22300000 151.00200000
O 192.90000000 157.44300000 144.77700000
O 192.90000000 157.44300000 153.21900000
O 192.90000000 159.44700000 146.78100000
O 192.90000000 159.44700000 155.22300000
O 192.90000000 161.66400000 148.99800000
O 192.90000000 163.66800000 151.00200000
O 192.90000000 165.88500000 153.21900000
O 192.90000000 153.21900000 157.44300000
O 192.90000000 153.21900000 165.88500000
O 192.90000000 155.22300000 159.44700000
O 192.90000000 157.44300000 161.66400000
O 192.90000000 159.44700000 163.66800000
O 192.90000000 161.66400000 157.44300000
O 192.90000000 163.66800000 159.44700000
O 194.90400000 134.11500000 144.77700000
O 194.90400000 136.33200000 142.55700000
O 194.90400000 140.55300000 138.33600000
O 194.90400000 142.55700000 136.33200000
O 194.90400000 134.11500000 153.21900000
O 194.90400000 136.33200000 151.00200000
O 194.90400000 138.33600000 140.55300000
O 194.90400000 142.55700000 144.77700000
O 194.90400000 144.77700000 134.11500000
O 194.90400000 148.99800000 138.33600000
O 194.90400000 151.00200000 136.33200000
O 194.90400000 136.33200000 159.44700000
O 194.90400000 138.33600000 148.99800000
O 194.90400000 140.55300000 146.78100000
O 194.90400000 142.55700000 153.21900000
O 194.90400000 144.77700000 142.55700000
O 194.90400000 146.78100000 140.55300000
O 194.90400000 151.00200000 144.77700000
O 194.90400000 153.21900000 134.11500000
O 194.90400000 157.44300000 138.33600000
O 194.90400000 138.33600000 157.44300000
O 194.90400000 140.55300000 155.22300000
O 194.90400000 144.77700000 151.00200000
O 194.90400000 146.78100000 148.99800000
O 194.90400000 148.99800000 146.78100000
O 194.90400000 151.00200000 153.21900000
O 194.90400000 153.21900000 142.55700000
O 194.90400000 155.22300000 140.55300000
O 194.90400000 159.44700000 136.33200000
O 194.90400000 140.55300000 163.66800000
O 194.90400000 142.55700000 161.66400000
O 194.90400000 144.77700000 159.44700000
O 194.90400000 146.78100000 157.44300000
O 194.90400000 148.99800000 155.22300000
O 194.90400000 153.21900000 151.00200000
O 194.90400000 155.22300000 148.99800000
O 194.90400000 157.44300000 146.78100000
O 194.90400000 159.44700000 144.77700000
O 194.90400000 161.66400000 142.55700000
O 194.90400000 163.66800000 140.55300000
O 194.90400000 146.78100000 165.88500000
O 194.90400000 148.99800000 163.66800000
O 194.90400000 151.00200000 161.66400000
O 194.90400000 153.21900000 159.44700000
O 194.90400000 155.22300000 157.44300000
O 194.90400000 157.44300000 155.22300000
O 194.90400000 159.44700000 153.21900000
O 194.90400000 161.66400000 151.00200000
O 194.90400000 163.66800000 148.99800000
O 194.90400000 155.22300000 165.88500000
O 194.90400000 157.44300000 163.66800000
O 194.90400000 161.66400000 159.44700000
O 194.90400000 163.66800000 157.44300000
O 194.90400000 165.88500000 146.78100000
O 194.90400000 159.44700000 161.66400000
O 194.90400000 165.88500000 155.22300000
O 195.01200000 134.22000000 148.89000000
O 195.01200000 138.44400000 144.66900000
O 195.01200000 140.44800000 142.66500000
O 195.01200000 144.66900000 138.44400000
O 195.01200000 146.88600000 136.22400000
O 195.01200000 136.22400000 146.88600000
O 195.01200000 138.44400000 153.11400000
O 195.01200000 140.44800000 151.11000000
O 195.01200000 142.66500000 140.44800000
O 195.01200000 146.88600000 144.66900000
O 195.01200000 148.89000000 134.22000000
O 195.01200000 153.11400000 138.44400000
O 195.01200000 155.33100000 136.22400000
O 195.01200000 136.22400000 155.33100000
O 195.01200000 140.44800000 159.55200000
O 195.01200000 142.66500000 148.89000000
O 195.01200000 144.66900000 146.88600000
O 195.01200000 146.88600000 153.11400000
O 195.01200000 148.89000000 142.66500000
O 195.01200000 151.11000000 140.44800000
O 195.01200000 155.33100000 144.66900000
O 195.01200000 161.55600000 138.44400000
O 195.01200000 138.44400000 161.55600000
O 195.01200000 142.66500000 157.33500000
O 195.01200000 144.66900000 155.33100000
O 195.01200000 148.89000000 151.11000000
O 195.01200000 151.11000000 148.89000000
O 195.01200000 153.11400000 146.88600000
O 195.01200000 155.33100000 153.11400000
O 195.01200000 157.33500000 142.66500000
O 195.01200000 159.55200000 140.44800000
O 195.01200000 144.66900000 163.77600000
O 195.01200000 146.88600000 161.55600000
O 195.01200000 148.89000000 159.55200000
O 195.01200000 151.11000000 157.33500000
O 195.01200000 153.11400000 155.33100000
O 195.01200000 157.33500000 151.11000000
O 195.01200000 159.55200000 148.89000000
O 195.01200000 161.55600000 146.88600000
O 195.01200000 163.77600000 144.66900000
O 195.01200000 151.11000000 165.78000000
O 195.01200000 153.11400000 163.77600000
O 195.01200000 155.33100000 161.55600000
O 195.01200000 157.33500000 159.55200000
O 195.01200000 159.55200000 157.33500000
O 195.01200000 161.55600000 155.33100000
O 195.01200000 163.77600000 153.11400000
O 195.01200000 165.78000000 151.11000000
O 197.01600000 136.22400000 140.44800000
O 197.01600000 140.44800000 136.22400000
O 197.01600000 134.22000000 146.88600000
O 197.01600000 138.44400000 142.66500000
O 197.01600000 142.66500000 138.44400000
O 197.01600000 144.66900000 140.44800000
O 197.01600000 146.88600000 134.22000000
O 197.01600000 148.89000000 136.22400000
O 197.01600000 134.22000000 155.33100000
O 197.01600000 136.22400000 148.89000000
O 197.01600000 138.44400000 151.11000000
O 197.01600000 140.44800000 144.66900000
O 197.01600000 142.66500000 146.88600000
O 197.01600000 146.88600000 142.66500000
O 197.01600000 151.11000000 138.44400000
O 197.01600000 153.11400000 140.44800000
O 197.01600000 155.33100000 134.22000000
O 197.01600000 136.22400000 157.33500000
O 197.01600000 140.44800000 153.11400000
O 197.01600000 144.66900000 148.89000000
O 197.01600000 148.89000000 144.66900000
O 197.01600000 157.33500000 136.22400000
O 197.01600000 138.44400000 159.55200000
O 197.01600000 142.66500000 155.33100000
O 197.01600000 146.88600000 151.11000000
O 197.01600000 151.11000000 146.88600000
O 197.01600000 155.33100000 142.66500000
O 197.01600000 159.55200000 138.44400000
O 197.01600000 140.44800000 161.55600000
O 197.01600000 144.66900000 157.33500000
O 197.01600000 148.89000000 153.11400000
O 197.01600000 153.11400000 148.89000000
O 197.01600000 161.55600000 140.44800000
O 197.01600000 151.11000000 155.33100000
O 197.01600000 155.33100000 151.11000000
O 197.01600000 157.33500000 144.66900000
O 197.01600000 159.55200000 146.88600000
O 197.01600000 163.77600000 142.66500000
O 197.01600000 142.66500000 163.77600000
O 197.01600000 144.66900000 165.78000000
O 197.01600000 146.88600000 159.55200000
O 197.01600000 148.89000000 161.55600000
O 197.01600000 153.11400000 157.33500000
O 197.01600000 157.33500000 153.11400000
O 197.01600000 159.55200000 155.33100000
O 197.01600000 161.55600000 148.89000000
O 197.01600000 163.77600000 151.11000000
O 197.01600000 165.78000000 144.66900000
O 197.01600000 151.11000000 163.77600000
O 197.01600000 153.11400000 165.78000000
O 197.01600000 155.33100000 159.55200000
O 197.01600000 157.33500000 161.55600000
O 197.01600000 161.55600000 157.33500000
O 197.01600000 165.78000000 153.11400000
O 197.01600000 159.55200000 163.77600000
O 197.01600000 163.77600000 159.55200000
O 197.12400000 138.33600000 138.33600000
O 197.12400000 140.55300000 140.55300000
O 197.12400000 144.77700000 136.33200000
O 197.12400000 134.11500000 151.00200000
O 197.12400000 136.33200000 144.77700000
O 197.12400000 138.33600000 146.78100000
O 197.12400000 142.55700000 142.55700000
O 197.12400000 146.78100000 138.33600000
O 197.12400000 148.99800000 140.55300000
O 197.12400000 151.00200000 134.11500000
O 197.12400000 153.21900000 136.33200000
O 197.12400000 136.33200000 153.21900000
O 197.12400000 138.33600000 155.22300000
O 197.12400000 140.55300000 148.99800000
O 197.12400000 142.55700000 151.00200000
O 197.12400000 144.77700000 144.77700000
O 197.12400000 146.78100000 146.78100000
O 197.12400000 151.00200000 142.55700000
O 197.12400000 155.22300000 138.33600000
O 197.12400000 157.44300000 140.55300000
O 197.12400000 140.55300000 157.44300000
O 197.12400000 144.77700000 153.21900000
O 197.12400000 148.99800000 148.99800000
O 197.12400000 153.21900000 144.77700000
O 197.12400000 142.55700000 159.44700000
O 197.12400000 146.78100000 155.22300000
O 197.12400000 151.00200000 151.00200000
O 197.12400000 155.22300000 146.78100000
O 197.12400000 159.44700000 142.55700000
O 197.12400000 144.77700000 161.66400000
O 197.12400000 148.99800000 157.44300000
O 197.12400000 153.21900000 153.21900000
O 197.12400000 157.44300000 148.99800000
O 197.12400000 155.22300000 155.22300000
O 197.12400000 159.44700000 151.00200000
O 197.12400000 161.66400000 144.77700000
O 197.12400000 163.66800000 146.78100000
O 197.12400000 146.78100000 163.66800000
O 197.12400000 148.99800000 165.88500000
O 197.12400000 151.00200000 159.44700000
O 197.12400000 153.21900000 161.66400000
O 197.12400000 157.44300000 157.44300000
O 197.12400000 161.66400000 153.21900000
O 197.12400000 163.66800000 155.22300000
O 197.12400000 165.88500000 148.99800000
O 197.12400000 155.22300000 163.66800000
O 197.12400000 159.44700000 159.44700000
O 197.12400000 161.66400000 161.66400000
O 199.12800000 134.11500000 148.99800000
O 199.12800000 136.33200000 146.78100000
O 199.12800000 138.33600000 144.77700000
O 199.12800000 140.55300000 142.55700000
O 199.12800000 142.55700000 140.55300000
O 199.12800000 144.77700000 138.33600000
O 199.12800000 146.78100000 136.33200000
O 199.12800000 148.99800000 134.11500000
O 199.12800000 136.33200000 155.22300000
O 199.12800000 138.33600000 153.21900000
O 199.12800000 140.55300000 151.00200000
O 199.12800000 144.77700000 146.78100000
O 199.12800000 148.99800000 142.55700000
O 199.12800000 151.00200000 140.55300000
O 199.12800000 155.22300000 136.33200000
O 199.12800000 142.55700000 148.99800000
O 199.12800000 146.78100000 144.77700000
O 199.12800000 153.21900000 138.33600000
O 199.12800000 138.33600000 161.66400000
O 199.12800000 144.77700000 155.22300000
O 199.12800000 148.99800000 151.00200000
O 199.12800000 159.44700000 140.55300000
O 199.12800000 140.55300000 159.44700000
O 199.12800000 142.55700000 157.44300000
O 199.12800000 146.78100000 153.21900000
O 199.12800000 151.00200000 148.99800000
O 199.12800000 153.21900000 146.78100000
O 199.12800000 155.22300000 144.77700000
O 199.12800000 157.44300000 142.55700000
O 199.12800000 161.66400000 138.33600000
O 199.12800000 144.77700000 163.66800000
O 199.12800000 146.78100000 161.66400000
O 199.12800000 148.99800000 159.44700000
O 199.12800000 151.00200000 157.44300000
O 199.12800000 153.21900000 155.22300000
O 199.12800000 155.22300000 153.21900000
O 199.12800000 157.44300000 151.00200000
O 199.12800000 159.44700000 148.99800000
O 199.12800000 161.66400000 146.78100000
O 199.12800000 163.66800000 144.77700000
O 199.12800000 151.00200000 165.88500000
O 199.12800000 155.22300000 161.66400000
O 199.12800000 159.44700000 157.44300000
O 199.12800000 161.66400000 155.22300000
O 199.12800000 163.66800000 153.21900000
O 199.12800000 165.88500000 151.00200000
O 199.12800000 153.21900000 163.66800000
O 199.12800000 157.44300000 159.44700000
O 199.23300000 138.44400000 140.44800000
O 199.23300000 142.66500000 136.22400000
O 199.23300000 134.22000000 144.66900000
O 199.23300000 136.22400000 142.66500000
O 199.23300000 140.44800000 138.44400000
O 199.23300000 144.66900000 134.22000000
O 199.23300000 146.88600000 140.44800000
O 199.23300000 134.22000000 153.11400000
O 199.23300000 136.22400000 151.11000000
O 199.23300000 138.44400000 148.89000000
O 199.23300000 140.44800000 146.88600000
O 199.23300000 142.66500000 144.66900000
O 199.23300000 144.66900000 142.66500000
O 199.23300000 148.89000000 138.44400000
O 199.23300000 151.11000000 136.22400000
O 199.23300000 153.11400000 134.22000000
O 199.23300000 138.44400000 157.33500000
O 199.23300000 140.44800000 155.33100000
O 199.23300000 142.66500000 153.11400000
O 199.23300000 144.66900000 151.11000000
O 199.23300000 146.88600000 148.89000000
O 199.23300000 148.89000000 146.88600000
O 199.23300000 153.11400000 142.66500000
O 199.23300000 155.33100000 140.44800000
O 199.23300000 157.33500000 138.44400000
O 199.23300000 159.55200000 136.22400000
O 199.23300000 136.22400000 159.55200000
O 199.23300000 151.11000000 144.66900000
O 199.23300000 142.66500000 161.55600000
O 199.23300000 146.88600000 157.33500000
O 199.23300000 148.89000000 155.33100000
O 199.23300000 153.11400000 151.11000000
O 199.23300000 157.33500000 146.88600000
O 199.23300000 163.77600000 140.44800000
O 199.23300000 140.44800000 163.77600000
O 199.23300000 144.66900000 159.55200000
O 199.23300000 151.11000000 153.11400000
O 199.23300000 155.33100000 148.89000000
O 199.23300000 159.55200000 144.66900000
O 199.23300000 161.55600000 142.66500000
O 199.23300000 146.88600000 165.78000000
O 199.23300000 157.33500000 155.33100000
O 199.23300000 148.89000000 163.77600000
O 199.23300000 151.11000000 161.55600000
O 199.23300000 153.11400000 159.55200000
O 199.23300000 155.33100000 157.33500000
O 199.23300000 159.55200000 153.11400000
O 199.23300000 161.55600000 151.11000000
O 199.23300000 163.77600000 148.89000000
O 199.23300000 165.78000000 146.88600000
O 199.23300000 155.33100000 165.78000000
O 199.23300000 157.33500000 163.77600000
O 199.23300000 159.55200000 161.55600000
O 199.23300000 163.77600000 157.33500000
O 199.23300000 165.78000000 155.33100000
O 199.23300000 161.55600000 159.55200000
O 201.23700000 136.22400000 144.66900000
O 201.23700000 138.44400000 138.44400000
O 201.23700000 134.22000000 151.11000000
O 201.23700000 136.22400000 153.11400000
O 201.23700000 140.44800000 140.44800000
O 201.23700000 142.66500000 142.66500000
O 201.23700000 144.66900000 136.22400000
O 201.23700000 146.88600000 138.44400000
O 201.23700000 151.11000000 134.22000000
O 201.23700000 138.44400000 146.88600000
O 201.23700000 140.44800000 148.89000000
O 201.23700000 142.66500000 151.11000000
O 201.23700000 144.66900000 144.66900000
O 201.23700000 148.89000000 140.44800000
O 201.23700000 151.11000000 142.66500000
O 201.23700000 153.11400000 136.22400000
O 201.23700000 155.33100000 138.44400000
O 201.23700000 138.44400000 155.33100000
O 201.23700000 140.44800000 157.33500000
O 201.23700000 142.66500000 159.55200000
O 201.23700000 144.66900000 153.11400000
O 201.23700000 146.88600000 146.88600000
O 201.23700000 148.89000000 148.89000000
O 201.23700000 151.11000000 151.11000000
O 201.23700000 153.11400000 144.66900000
O 201.23700000 157.33500000 140.44800000
O 201.23700000 146.88600000 155.33100000
O 201.23700000 148.89000000 157.33500000
O 201.23700000 151.11000000 159.55200000
O 201.23700000 153.11400000 153.11400000
O 201.23700000 155.33100000 146.88600000
O 201.23700000 157.33500000 148.89000000
O 201.23700000 159.55200000 142.66500000
O 201.23700000 161.55600000 144.66900000
O 201.23700000 144.66900000 161.55600000
O 201.23700000 146.88600000 163.77600000
O 201.23700000 148.89000000 165.78000000
O 201.23700000 155.33100000 155.33100000
O 201.23700000 157.33500000 157.33500000
O 201.23700000 159.55200000 151.11000000
O 201.23700000 161.55600000 153.11400000
O 201.23700000 163.77600000 146.88600000
O 201.23700000 153.11400000 161.55600000
O 201.23700000 155.33100000 163.77600000
O 201.23700000 159.55200000 159.55200000
O 201.23700000 163.77600000 155.33100000
O 201.23700000 165.78000000 148.89000000
O 201.23700000 161.55600000 161.55600000
O 201.34500000 140.55300000 136.33200000
O 201.34500000 134.11500000 146.78100000
O 201.34500000 136.33200000 140.55300000
O 201.34500000 138.33600000 142.55700000
O 201.34500000 140.55300000 144.77700000
O 201.34500000 142.55700000 138.33600000
O 201.34500000 146.78100000 134.11500000
O 201.34500000 134.11500000 155.22300000
O 201.34500000 136.33200000 148.99800000
O 201.34500000 138.33600000 151.00200000
O 201.34500000 140.55300000 153.21900000
O 201.34500000 144.77700000 140.55300000
O 201.34500000 146.78100000 142.55700000
O 201.34500000 148.99800000 136.33200000
O 201.34500000 151.00200000 138.33600000
O 201.34500000 155.22300000 134.11500000
O 201.34500000 136.33200000 157.44300000
O 201.34500000 138.33600000 159.44700000
O 201.34500000 142.55700000 146.78100000
O 201.34500000 144.77700000 148.99800000
O 201.34500000 146.78100000 151.00200000
O 201.34500000 148.99800000 144.77700000
O 201.34500000 153.21900000 140.55300000
O 201.34500000 155.22300000 142.55700000
O 201.34500000 157.44300000 136.33200000
O 201.34500000 159.44700000 138.33600000
O 201.34500000 140.55300000 161.66400000
O 201.34500000 142.55700000 155.22300000
O 201.34500000 144.77700000 157.44300000
O 201.34500000 146.78100000 159.44700000
O 201.34500000 148.99800000 153.21900000
O 201.34500000 151.00200000 146.78100000
O 201.34500000 153.21900000 148.99800000
O 201.34500000 155.22300000 151.00200000
O 201.34500000 157.44300000 144.77700000
O 201.34500000 161.66400000 140.55300000
O 201.34500000 142.55700000 163.66800000
O 201.34500000 144.77700000 165.88500000
O 201.34500000 151.00200000 155.22300000
O 201.34500000 153.21900000 157.44300000
O 201.34500000 155.22300000 159.44700000
O 201.34500000 157.44300000 153.21900000
O 201.34500000 159.44700000 146.78100000
O 201.34500000 161.66400000 148.99800000
O 201.34500000 163.66800000 142.55700000
O 201.34500000 165.88500000 144.77700000
O 201.34500000 148.99800000 161.66400000
O 201.34500000 151.00200000 163.66800000
O 201.34500000 153.21900000 165.88500000
O 201.34500000 159.44700000 155.22300000
O 201.34500000 161.66400000 157.44300000
O 201.34500000 163.66800000 151.00200000
O 201.34500000 165.88500000 153.21900000
O 201.34500000 157.44300000 161.66400000
O 201.34500000 159.44700000 163.66800000
O 201.34500000 163.66800000 159.44700000
O 203.34900000 136.33200000 142.55700000
O 203.34900000 138.33600000 140.55300000
O 203.34900000 140.55300000 138.33600000
O 203.34900000 142.55700000 136.33200000
O 203.34900000 144.77700000 142.55700000
O 203.34900000 146.78100000 140.55300000
O 203.34900000 134.11500000 153.21900000
O 203.34900000 136.33200000 151.00200000
O 203.34900000 138.33600000 148.99800000
O 203.34900000 140.55300000 146.78100000
O 203.34900000 140.55300000 155.22300000
O 203.34900000 142.55700000 144.77700000
O 203.34900000 142.55700000 153.21900000
O 203.34900000 144.77700000 151.00200000
O 203.34900000 146.78100000 148.99800000
O 203.34900000 148.99800000 138.33600000
O 203.34900000 151.00200000 136.33200000
O 203.34900000 153.21900000 134.11500000
O 203.34900000 153.21900000 142.55700000
O 203.34900000 155.22300000 140.55300000
O 203.34900000 157.44300000 138.33600000
O 203.34900000 159.44700000 136.33200000
O 203.34900000 161.66400000 142.55700000
O 203.34900000 136.33200000 159.44700000
O 203.34900000 138.33600000 157.44300000
O 203.34900000 140.55300000 163.66800000
O 203.34900000 142.55700000 161.66400000
O 203.34900000 144.77700000 159.44700000
O 203.34900000 146.78100000 157.44300000
O 203.34900000 146.78100000 165.88500000
O 203.34900000 148.99800000 146.78100000
O 203.34900000 148.99800000 155.22300000
O 203.34900000 151.00200000 144.77700000
O 203.34900000 151.00200000 153.21900000
O 203.34900000 153.21900000 151.00200000
O 203.34900000 155.22300000 148.99800000
O 203.34900000 157.44300000 146.78100000
O 203.34900000 157.44300000 155.22300000
O 203.34900000 159.44700000 144.77700000
O 203.34900000 159.44700000 153.21900000
O 203.34900000 161.66400000 151.00200000
O 203.34900000 163.66800000 140.55300000
O 203.34900000 148.99800000 163.66800000
O 203.34900000 151.00200000 161.66400000
O 203.34900000 153.21900000 159.44700000
O 203.34900000 155.22300000 157.44300000
O 203.34900000 157.44300000 163.66800000
O 203.34900000 159.44700000 161.66400000
O 203.34900000 161.66400000 159.44700000
O 203.34900000 163.66800000 148.99800000
O 203.34900000 165.88500000 146.78100000
O 203.34900000 163.66800000 157.44300000
O 203.45700000 140.44800000 142.66500000
O 203.45700000 142.66500000 140.44800000
O 203.45700000 134.22000000 148.89000000
O 203.45700000 136.22400000 146.88600000
O 203.45700000 136.22400000 155.33100000
O 203.45700000 138.44400000 144.66900000
O 203.45700000 138.44400000 153.11400000
O 203.45700000 140.44800000 151.11000000
O 203.45700000 142.66500000 148.89000000
O 203.45700000 144.66900000 138.44400000
O 203.45700000 146.88600000 136.22400000
O 203.45700000 148.89000000 134.22000000
O 203.45700000 148.89000000 142.66500000
O 203.45700000 151.11000000 140.44800000
O 203.45700000 153.11400000 138.44400000
O 203.45700000 155.33100000 136.22400000
O 203.45700000 157.33500000 142.66500000
O 203.45700000 138.44400000 161.55600000
O 203.45700000 140.44800000 159.55200000
O 203.45700000 142.66500000 157.33500000
O 203.45700000 144.66900000 146.88600000
O 203.45700000 144.66900000 155.33100000
O 203.45700000 146.88600000 144.66900000
O 203.45700000 146.88600000 153.11400000
O 203.45700000 148.89000000 151.11000000
O 203.45700000 151.11000000 148.89000000
O 203.45700000 153.11400000 146.88600000
O 203.45700000 153.11400000 155.33100000
O 203.45700000 155.33100000 144.66900000
O 203.45700000 155.33100000 153.11400000
O 203.45700000 157.33500000 151.11000000
O 203.45700000 159.55200000 140.44800000
O 203.45700000 161.55600000 138.44400000
O 203.45700000 144.66900000 163.77600000
O 203.45700000 146.88600000 161.55600000
O 203.45700000 148.89000000 159.55200000
O 203.45700000 151.11000000 157.33500000
O 203.45700000 151.11000000 165.78000000
O 203.45700000 153.11400000 163.77600000
O 203.45700000 155.33100000 161.55600000
O 203.45700000 157.33500000 159.55200000
O 203.45700000 159.55200000 148.89000000
O 203.45700000 161.55600000 146.88600000
O 203.45700000 161.55600000 155.33100000
O 203.45700000 163.77600000 144.66900000
O 203.45700000 163.77600000 153.11400000
O 203.45700000 165.78000000 151.11000000
O 203.45700000 159.55200000 157.33500000
O 205.46100000 138.44400000 142.66500000
O 205.46100000 136.22400000 148.89000000
O 205.46100000 138.44400000 151.11000000
O 205.46100000 140.44800000 144.66900000
O 205.46100000 140.44800000 153.11400000
O 205.46100000 142.66500000 138.44400000
O 205.46100000 144.66900000 140.44800000
O 205.46100000 146.88600000 142.66500000
O 205.46100000 148.89000000 136.22400000
O 205.46100000 151.11000000 138.44400000
O 205.46100000 153.11400000 140.44800000
O 205.46100000 155.33100000 142.66500000
O 205.46100000 136.22400000 157.33500000
O 205.46100000 138.44400000 159.55200000
O 205.46100000 140.44800000 161.55600000
O 205.46100000 142.66500000 146.88600000
O 205.46100000 142.66500000 155.33100000
O 205.46100000 144.66900000 148.89000000
O 205.46100000 146.88600000 151.11000000
O 205.46100000 148.89000000 144.66900000
O 205.46100000 148.89000000 153.11400000
O 205.46100000 151.11000000 146.88600000
O 205.46100000 151.11000000 155.33100000
O 205.46100000 153.11400000 148.89000000
O 205.46100000 155.33100000 151.11000000
O 205.46100000 157.33500000 136.22400000
O 205.46100000 159.55200000 138.44400000
O 205.46100000 161.55600000 140.44800000
O 205.46100000 163.77600000 142.66500000
O 205.46100000 142.66500000 163.77600000
O 205.46100000 144.66900000 157.33500000
O 205.46100000 146.88600000 159.55200000
O 205.46100000 148.89000000 161.55600000
O 205.46100000 151.11000000 163.77600000
O 205.46100000 153.11400000 157.33500000
O 205.46100000 155.33100000 159.55200000
O 205.46100000 157.33500000 144.66900000
O 205.46100000 157.33500000 153.11400000
O 205.46100000 159.55200000 146.88600000
O 205.46100000 159.55200000 155.33100000
O 205.46100000 161.55600000 148.89000000
O 205.46100000 163.77600000 151.11000000
O 205.46100000 157.33500000 161.55600000
O 205.46100000 161.55600000 157.33500000
O 205.56600000 136.33200000 144.77700000
O 205.56600000 136.33200000 153.21900000
O 205.56600000 140.55300000 140.55300000
O 205.56600000 142.55700000 142.55700000
O 205.56600000 144.77700000 136.33200000
O 205.56600000 146.78100000 138.33600000
O 205.56600000 148.99800000 140.55300000
O 205.56600000 151.00200000 142.55700000
O 205.56600000 138.33600000 146.78100000
O 205.56600000 138.33600000 155.22300000
O 205.56600000 140.55300000 148.99800000
O 205.56600000 142.55700000 151.00200000
O 205.56600000 144.77700000 144.77700000
O 205.56600000 144.77700000 153.21900000
O 205.56600000 146.78100000 146.78100000
O 205.56600000 146.78100000 155.22300000
O 205.56600000 148.99800000 148.99800000
O 205.56600000 151.00200000 151.00200000
O 205.56600000 153.21900000 136.33200000
O 205.56600000 155.22300000 138.33600000
O 205.56600000 157.44300000 140.55300000
O 205.56600000 159.44700000 142.55700000
O 205.56600000 140.55300000 157.44300000
O 205.56600000 142.55700000 159.44700000
O 205.56600000 144.77700000 161.66400000
O 205.56600000 146.78100000 163.66800000
O 205.56600000 148.99800000 157.44300000
O 205.56600000 151.00200000 159.44700000
O 205.56600000 153.21900000 144.77700000
O 205.56600000 153.21900000 153.21900000
O 205.56600000 155.22300000 146.78100000
O 205.56600000 155.22300000 155.22300000
O 205.56600000 157.44300000 148.99800000
O 205.56600000 159.44700000 151.00200000
O 205.56600000 161.66400000 144.77700000
O 205.56600000 161.66400000 153.21900000
O 205.56600000 163.66800000 146.78100000
O 205.56600000 163.66800000 155.22300000
O 205.56600000 153.21900000 161.66400000
O 205.56600000 155.22300000 163.66800000
O 205.56600000 157.44300000 157.44300000
O 205.56600000 159.44700000 159.44700000
O 207.57000000 136.33200000 146.78100000
O 207.57000000 136.33200000 155.22300000
O 207.57000000 138.33600000 144.77700000
O 207.57000000 138.33600000 153.21900000
O 207.57000000 140.55300000 142.55700000
O 207.57000000 140.55300000 151.00200000
O 207.57000000 140.55300000 159.44700000
O 207.57000000 142.55700000 140.55300000
O 207.57000000 142.55700000 148.99800000
O 207.57000000 142.55700000 157.44300000
O 207.57000000 144.77700000 138.33600000
O 207.57000000 144.77700000 146.78100000
O 207.57000000 144.77700000 155.22300000
O 207.57000000 144.77700000 163.66800000
O 207.57000000 146.78100000 136.33200000
O 207.57000000 146.78100000 144.77700000
O 207.57000000 146.78100000 153.21900000
O 207.57000000 146.78100000 161.66400000
O 207.57000000 148.99800000 142.55700000
O 207.57000000 148.99800000 151.00200000
O 207.57000000 148.99800000 159.44700000
O 207.57000000 151.00200000 140.55300000
O 207.57000000 151.00200000 148.99800000
O 207.57000000 151.00200000 157.44300000
O 207.57000000 153.21900000 138.33600000
O 207.57000000 153.21900000 146.78100000
O 207.57000000 153.21900000 155.22300000
O 207.57000000 153.21900000 163.66800000
O 207.57000000 155.22300000 136.33200000
O 207.57000000 155.22300000 144.77700000
O 207.57000000 155.22300000 153.21900000
O 207.57000000 155.22300000 161.66400000
O 207.57000000 157.44300000 142.55700000
O 207.57000000 157.44300000 151.00200000
O 207.57000000 157.44300000 159.44700000
O 207.57000000 159.44700000 140.55300000
O 207.57000000 159.44700000 148.99800000
O 207.57000000 159.44700000 157.44300000
O 207.57000000 161.66400000 146.78100000
O 207.57000000 161.66400000 155.22300000
O 207.57000000 163.66800000 153.21900000
O 207.67800000 136.22400000 151.11000000
O 207.67800000 138.44400000 148.89000000
O 207.67800000 138.44400000 157.33500000
O 207.67800000 140.44800000 146.88600000
O 207.67800000 140.44800000 155.33100000
O 207.67800000 142.66500000 144.66900000
O 207.67800000 142.66500000 153.11400000
O 207.67800000 142.66500000 161.55600000
O 207.67800000 144.66900000 142.66500000
O 207.67800000 144.66900000 151.11000000
O 207.67800000 144.66900000 159.55200000
O 207.67800000 146.88600000 140.44800000
O 207.67800000 146.88600000 148.89000000
O 207.67800000 146.88600000 157.33500000
O 207.67800000 148.89000000 138.44400000
O 207.67800000 148.89000000 146.88600000
O 207.67800000 148.89000000 155.33100000
O 207.67800000 148.89000000 163.77600000
O 207.67800000 151.11000000 136.22400000
O 207.67800000 151.11000000 144.66900000
O 207.67800000 151.11000000 153.11400000
O 207.67800000 151.11000000 161.55600000
O 207.67800000 153.11400000 142.66500000
O 207.67800000 153.11400000 151.11000000
O 207.67800000 153.11400000 159.55200000
O 207.67800000 155.33100000 140.44800000
O 207.67800000 155.33100000 148.89000000
O 207.67800000 155.33100000 157.33500000
O 207.67800000 157.33500000 138.44400000
O 207.67800000 157.33500000 146.88600000
O 207.67800000 157.33500000 155.33100000
O 207.67800000 159.55200000 144.66900000
O 207.67800000 159.55200000 153.11400000
O 207.67800000 161.55600000 142.66500000
O 207.67800000 161.55600000 151.11000000
O 207.67800000 163.77600000 148.89000000
O 209.68200000 138.44400000 146.88600000
O 209.68200000 138.44400000 155.33100000
O 209.68200000 140.44800000 148.89000000
O 209.68200000 140.44800000 157.33500000
O 209.68200000 142.66500000 142.66500000
O 209.68200000 142.66500000 151.11000000
O 209.68200000 142.66500000 159.55200000
O 209.68200000 144.66900000 144.66900000
O 209.68200000 144.66900000 153.11400000
O 209.68200000 144.66900000 161.55600000
O 209.68200000 146.88600000 138.44400000
O 209.68200000 146.88600000 146.88600000
O 209.68200000 146.88600000 155.33100000
O 209.68200000 148.89000000 140.44800000
O 209.68200000 148.89000000 148.89000000
O 209.68200000 148.89000000 157.33500000
O 209.68200000 151.11000000 142.66500000
O 209.68200000 151.11000000 151.11000000
O 209.68200000 151.11000000 159.55200000
O 209.68200000 153.11400000 144.66900000
O 209.68200000 153.11400000 153.11400000
O 209.68200000 153.11400000 161.55600000
O 209.68200000 155.33100000 138.44400000
O 209.68200000 155.33100000 146.88600000
O 209.68200000 155.33100000 155.33100000
O 209.68200000 157.33500000 140.44800000
O 209.68200000 157.33500000 148.89000000
O 209.68200000 157.33500000 157.33500000
O 209.68200000 159.55200000 142.66500000
O 209.68200000 159.55200000 151.11000000
O 209.68200000 161.55600000 144.66900000
O 209.68200000 161.55600000 153.11400000
O 209.79000000 138.33600000 151.00200000
O 209.79000000 140.55300000 144.77700000
O 209.79000000 140.55300000 153.21900000
O 209.79000000 142.55700000 146.78100000
O 209.79000000 142.55700000 155.22300000
O 209.79000000 144.77700000 140.55300000
O 209.79000000 144.77700000 148.99800000
O 209.79000000 144.77700000 157.44300000
O 209.79000000 146.78100000 142.55700000
O 209.79000000 146.78100000 151.00200000
O 209.79000000 146.78100000 159.44700000
O 209.79000000 148.99800000 144.77700000
O 209.79000000 148.99800000 153.21900000
O 209.79000000 148.99800000 161.66400000
O 209.79000000 151.00200000 138.33600000
O 209.79000000 151.00200000 146.78100000
O 209.79000000 151.00200000 155.22300000
O 209.79000000 153.21900000 140.55300000
O 209.79000000 153.21900000 148.99800000
O 209.79000000 153.21900000 157.44300000
O 209.79000000 155.22300000 142.55700000
O 209.79000000 155.22300000 151.00200000
O 209.79000000 155.22300000 159.44700000
O 209.79000000 157.44300000 144.77700000
O 209.79000000 157.44300000 153.21900000
O 209.79000000 159.44700000 146.78100000
O 209.79000000 159.44700000 155.22300000
O 209.79000000 161.66400000 148.99800000
O 211.79400000 140.55300000 146.78100000
O 211.79400000 140.55300000 155.22300000
O 211.79400000 142.55700000 144.77700000
O 211.79400000 142.55700000 153.21900000
O 211.79400000 144.77700000 142.55700000
O 211.79400000 144.77700000 151.00200000
O 211.79400000 146.78100000 140.55300000
O 211.79400000 146.78100000 148.99800000
O 211.79400000 146.78100000 157.44300000
O 211.79400000 148.99800000 146.78100000
O 211.79400000 148.99800000 155.22300000
O 211.79400000 151.00200000 144.77700000
O 211.79400000 151.00200000 153.21900000
O 211.79400000 153.21900000 142.55700000
O 211.79400000 153.21900000 151.00200000
O 211.79400000 153.21900000 159.44700000
O 211.79400000 155.22300000 148.99800000
O 211.79400000 155.22300000 157.44300000
O 211.79400000 157.44300000 146.78100000
O 211.79400000 157.44300000 155.22300000
O 211.79400000 159.44700000 153.21900000
O 211.89900000 140.44800000 151.11000000
O 211.89900000 142.66500000 148.89000000
O 211.89900000 142.66500000 157.33500000
O 211.89900000 144.66900000 146.88600000
O 211.89900000 144.66900000 155.33100000
O 211.89900000 146.88600000 144.66900000
O 211.89900000 146.88600000 153.11400000
O 211.89900000 148.89000000 142.66500000
O 211.89900000 148.89000000 151.11000000
O 211.89900000 148.89000000 159.55200000
O 211.89900000 151.11000000 140.44800000
O 211.89900000 151.11000000 148.89000000
O 211.89900000 151.11000000 157.33500000
O 211.89900000 153.11400000 146.88600000
O 211.89900000 153.11400000 155.33100000
O 211.89900000 155.33100000 144.66900000
O 211.89900000 155.33100000 153.11400000
O 211.89900000 157.33500000 142.66500000
O 211.89900000 157.33500000 151.11000000
O 211.89900000 159.55200000 148.89000000
O 213.90300000 144.66900000 148.89000000
O 213.90300000 146.88600000 151.11000000
O 213.90300000 148.89000000 144.66900000
O 213.90300000 148.89000000 153.11400000
O 213.90300000 151.11000000 146.88600000
O 213.90300000 151.11000000 155.33100000
O 213.90300000 153.11400000 148.89000000
O 213.90300000 155.33100000 151.11000000
O 214.01100000 144.77700000 153.21900000
O 214.01100000 146.78100000 146.78100000
O 214.01100000 146.78100000 155.22300000
O 214.01100000 148.99800000 148.99800000
O 214.01100000 151.00200000 151.00200000
O 214.01100000 153.21900000 144.77700000
O 214.01100000 153.21900000 153.21900000
O 214.01100000 155.22300000 146.78100000
O 133.40700000 193.68600000 150.67800000
O 133.40700000 199.29300000 145.45500000
O 133.40700000 199.29300000 150.67800000
O 133.40700000 195.55500000 148.06500000
O 133.40700000 195.55500000 153.28800000
O 133.40700000 201.16200000 148.06500000
O 133.40700000 201.16200000 153.28800000
O 135.02700000 190.88100000 145.45500000
O 135.02700000 190.88100000 150.67800000
O 135.02700000 196.49100000 145.45500000
O 135.02700000 196.49100000 150.67800000
O 135.02700000 196.49100000 155.90100000
O 135.02700000 202.09800000 145.45500000
O 135.02700000 202.09800000 150.67800000
O 135.02700000 202.09800000 155.90100000
O 135.02700000 192.75000000 142.84500000
O 135.02700000 192.75000000 148.06500000
O 135.02700000 192.75000000 153.28800000
O 135.02700000 198.36000000 142.84500000
O 135.02700000 198.36000000 148.06500000
O 135.02700000 198.36000000 153.28800000
O 135.02700000 198.36000000 158.51100000
O 135.02700000 203.96700000 142.84500000
O 135.02700000 203.96700000 148.06500000
O 135.02700000 203.96700000 153.28800000
O 136.64700000 188.07900000 145.45500000
O 136.64700000 188.07900000 150.67800000
O 136.64700000 193.68600000 140.23200000
O 136.64700000 193.68600000 145.45500000
O 136.64700000 193.68600000 150.67800000
O 136.64700000 193.68600000 155.90100000
O 136.64700000 199.29300000 140.23200000
O 136.64700000 199.29300000 145.45500000
O 136.64700000 199.29300000 150.67800000
O 136.64700000 199.29300000 155.90100000
O 136.64700000 199.29300000 161.12100000
O 136.64700000 204.90000000 145.45500000
O 136.64700000 204.90000000 150.67800000
O 136.64700000 204.90000000 155.90100000
O 136.64700000 189.94800000 142.84500000
O 136.64700000 189.94800000 148.06500000
O 136.64700000 189.94800000 153.28800000
O 136.64700000 195.55500000 142.84500000
O 136.64700000 195.55500000 148.06500000
O 136.64700000 195.55500000 153.28800000
O 136.64700000 195.55500000 158.51100000
O 136.64700000 201.16200000 142.84500000
O 136.64700000 201.16200000 148.06500000
O 136.64700000 201.16200000 153.28800000
O 136.64700000 201.16200000 158.51100000
O 136.64700000 206.76900000 142.84500000
O 136.64700000 206.76900000 148.06500000
O 136.64700000 206.76900000 153.28800000
O 138.26400000 185.27400000 150.67800000
O 138.26400000 190.88100000 140.23200000
O 138.26400000 190.88100000 145.45500000
O 138.26400000 190.88100000 150.67800000
O 138.26400000 190.88100000 155.90100000
O 138.26400000 196.49100000 140.23200000
O 138.26400000 196.49100000 145.45500000
O 138.26400000 196.49100000 150.67800000
O 138.26400000 196.49100000 155.90100000
O 138.26400000 196.49100000 161.12100000
O 138.26400000 202.09800000 140.23200000
O 138.26400000 202.09800000 145.45500000
O 138.26400000 202.09800000 150.67800000
O 138.26400000 202.09800000 155.90100000
O 138.26400000 202.09800000 161.12100000
O 138.26400000 207.70500000 145.45500000
O 138.26400000 207.70500000 150.67800000
O 138.26400000 207.70500000 155.90100000
O 138.26400000 187.14300000 142.84500000
O 138.26400000 187.14300000 148.06500000
O 138.26400000 187.14300000 153.28800000
O 138.26400000 192.75000000 142.84500000
O 138.26400000 192.75000000 148.06500000
O 138.26400000 192.75000000 153.28800000
O 138.26400000 192.75000000 158.51100000
O 138.26400000 198.36000000 137.62200000
O 138.26400000 198.36000000 142.84500000
O 138.26400000 198.36000000 148.06500000
O 138.26400000 198.36000000 153.28800000
O 138.26400000 198.36000000 158.51100000
O 138.26400000 203.96700000 142.84500000
O 138.26400000 203.96700000 148.06500000
O 138.26400000 203.96700000 153.28800000
O 138.26400000 203.96700000 158.51100000
O 138.26400000 209.57400000 148.06500000
O 138.26400000 209.57400000 153.28800000
O 139.88400000 188.07900000 140.23200000
O 139.88400000 188.07900000 145.45500000
O 139.88400000 188.07900000 150.67800000
O 139.88400000 188.07900000 155.90100000
O 139.88400000 193.68600000 140.23200000
O 139.88400000 193.68600000 145.45500000
O 139.88400000 193.68600000 150.67800000
O 139.88400000 193.68600000 155.90100000
O 139.88400000 193.68600000 161.12100000
O 139.88400000 199.29300000 140.23200000
O 139.88400000 199.29300000 145.45500000
O 139.88400000 199.29300000 150.67800000
O 139.88400000 199.29300000 155.90100000
O 139.88400000 199.29300000 161.12100000
O 139.88400000 204.90000000 140.23200000
O 139.88400000 204.90000000 145.45500000
O 139.88400000 204.90000000 150.67800000
O 139.88400000 204.90000000 155.90100000
O 139.88400000 204.90000000 161.12100000
O 139.88400000 210.50700000 145.45500000
O 139.88400000 210.50700000 150.67800000
O 139.88400000 210.50700000 155.90100000
O 139.88400000 184.34100000 148.06500000
O 139.88400000 184.34100000 153.28800000
O 139.88400000 189.94800000 142.84500000
O 139.88400000 189.94800000 148.06500000
O 139.88400000 189.94800000 153.28800000
O 139.88400000 189.94800000 158.51100000
O 139.88400000 195.55500000 137.62200000
O 139.88400000 195.55500000 142.84500000
O 139.88400000 195.55500000 148.06500000
O 139.88400000 195.55500000 153.28800000
O 139.88400000 195.55500000 158.51100000
O 139.88400000 195.55500000 163.73400000
O 139.88400000 201.16200000 137.62200000
O 139.88400000 201.16200000 142.84500000
O 139.88400000 201.16200000 148.06500000
O 139.88400000 201.16200000 153.28800000
O 139.88400000 201.16200000 158.51100000
O 139.88400000 201.16200000 163.73400000
O 139.88400000 206.76900000 142.84500000
O 139.88400000 206.76900000 148.06500000
O 139.88400000 206.76900000 153.28800000
O 139.88400000 206.76900000 158.51100000
O 139.88400000 212.37600000 148.06500000
O 141.50100000 185.27400000 145.45500000
O 141.50100000 185.27400000 150.67800000
O 141.50100000 185.27400000 155.90100000
O 141.50100000 190.88100000 140.23200000
O 141.50100000 190.88100000 145.45500000
O 141.50100000 190.88100000 150.67800000
O 141.50100000 190.88100000 155.90100000
O 141.50100000 190.88100000 161.12100000
O 141.50100000 196.49100000 135.01200000
O 141.50100000 196.49100000 140.23200000
O 141.50100000 196.49100000 145.45500000
O 141.50100000 196.49100000 150.67800000
O 141.50100000 196.49100000 155.90100000
O 141.50100000 196.49100000 161.12100000
O 141.50100000 202.09800000 140.23200000
O 141.50100000 202.09800000 145.45500000
O 141.50100000 202.09800000 150.67800000
O 141.50100000 202.09800000 155.90100000
O 141.50100000 202.09800000 161.12100000
O 141.50100000 207.70500000 140.23200000
O 141.50100000 207.70500000 145.45500000
O 141.50100000 207.70500000 150.67800000
O 141.50100000 207.70500000 155.90100000
O 141.50100000 207.70500000 161.12100000
O 141.50100000 213.31200000 150.67800000
O 141.50100000 187.14300000 142.84500000
O 141.50100000 187.14300000 148.06500000
O 141.50100000 187.14300000 153.28800000
O 141.50100000 187.14300000 158.51100000
O 141.50100000 192.75000000 137.62200000
O 141.50100000 192.75000000 142.84500000
O 141.50100000 192.75000000 148.06500000
O 141.50100000 192.75000000 153.28800000
O 141.50100000 192.75000000 158.51100000
O 141.50100000 192.75000000 163.73400000
O 141.50100000 198.36000000 137.62200000
O 141.50100000 198.36000000 142.84500000
O 141.50100000 198.36000000 148.06500000
O 141.50100000 198.36000000 153.28800000
O 141.50100000 198.36000000 158.51100000
O 141.50100000 198.36000000 163.73400000
O 141.50100000 203.96700000 137.62200000
O 141.50100000 203.96700000 142.84500000
O 141.50100000 203.96700000 148.06500000
O 141.50100000 203.96700000 153.28800000
O 141.50100000 203.96700000 158.51100000
O 141.50100000 203.96700000 163.73400000
O 141.50100000 209.57400000 142.84500000
O 141.50100000 209.57400000 148.06500000
O 141.50100000 209.57400000 153.28800000
O 141.50100000 209.57400000 158.51100000
O 143.12100000 182.47200000 150.67800000
O 143.12100000 188.07900000 140.23200000
O 143.12100000 188.07900000 145.45500000
O 143.12100000 188.07900000 150.67800000
O 143.12100000 188.07900000 155.90100000
O 143.12100000 193.68600000 135.01200000
O 143.12100000 193.68600000 140.23200000
O 143.12100000 188.07900000 161.12100000
O 143.12100000 193.68600000 145.45500000
O 143.12100000 193.68600000 150.67800000
O 143.12100000 193.68600000 155.90100000
O 143.12100000 193.68600000 161.12100000
O 143.12100000 199.29300000 135.01200000
O 143.12100000 199.29300000 140.23200000
O 143.12100000 199.29300000 145.45500000
O 143.12100000 199.29300000 150.67800000
O 143.12100000 199.29300000 155.90100000
O 143.12100000 204.90000000 140.23200000
O 143.12100000 199.29300000 161.12100000
O 143.12100000 204.90000000 145.45500000
O 143.12100000 204.90000000 150.67800000
O 143.12100000 204.90000000 155.90100000
O 143.12100000 204.90000000 161.12100000
O 143.12100000 210.50700000 140.23200000
O 143.12100000 210.50700000 145.45500000
O 143.12100000 210.50700000 150.67800000
O 143.12100000 210.50700000 155.90100000
O 143.12100000 184.34100000 142.84500000
O 143.12100000 184.34100000 148.06500000
O 143.12100000 184.34100000 153.28800000
O 143.12100000 189.94800000 137.62200000
O 143.12100000 184.34100000 158.51100000
O 143.12100000 189.94800000 142.84500000
O 143.12100000 189.94800000 148.06500000
O 143.12100000 189.94800000 153.28800000
O 143.12100000 189.94800000 158.51100000
O 143.12100000 189.94800000 163.73400000
O 143.12100000 195.55500000 137.62200000
O 143.12100000 195.55500000 142.84500000
O 143.12100000 195.55500000 148.06500000
O 143.12100000 195.55500000 153.28800000
O 143.12100000 201.16200000 137.62200000
O 143.12100000 195.55500000 158.51100000
O 143.12100000 195.55500000 163.73400000
O 143.12100000 201.16200000 142.84500000
O 143.12100000 201.16200000 148.06500000
O 143.12100000 201.16200000 153.28800000
O 143.12100000 201.16200000 158.51100000
O 143.12100000 201.16200000 163.73400000
O 143.12100000 206.76900000 137.62200000
O 143.12100000 206.76900000 142.84500000
O 143.12100000 206.76900000 148.06500000
O 143.12100000 206.76900000 153.28800000
O 143.12100000 206.76900000 158.51100000
O 143.12100000 206.76900000 163.73400000
O 143.12100000 212.37600000 142.84500000
O 143.12100000 212.37600000 148.06500000
O 143.12100000 212.37600000 153.28800000
O 144.73800000 185.27400000 140.23200000
O 144.73800000 185.27400000 145.45500000
O 144.73800000 185.27400000 150.67800000
O 144.73800000 185.27400000 155.90100000
O 144.73800000 190.88100000 135.01200000
O 144.73800000 190.88100000 140.23200000
O 144.73800000 190.88100000 145.45500000
O 144.73800000 190.88100000 150.67800000
O 144.73800000 190.88100000 155.90100000
O 144.73800000 190.88100000 161.12100000
O 144.73800000 196.49100000 135.01200000
O 144.73800000 196.49100000 140.23200000
O 144.73800000 196.49100000 145.45500000
O 144.73800000 196.49100000 150.67800000
O 144.73800000 196.49100000 155.90100000
O 144.73800000 202.09800000 135.01200000
O 144.73800000 202.09800000 140.23200000
O 144.73800000 196.49100000 161.12100000
O 144.73800000 196.49100000 166.34400000
O 144.73800000 202.09800000 145.45500000
O 144.73800000 202.09800000 150.67800000
O 144.73800000 202.09800000 155.90100000
O 144.73800000 207.70500000 140.23200000
O 144.73800000 202.09800000 161.12100000
O 144.73800000 202.09800000 166.34400000
O 144.73800000 207.70500000 145.45500000
O 144.73800000 207.70500000 150.67800000
O 144.73800000 207.70500000 155.90100000
O 144.73800000 207.70500000 161.12100000
O 144.73800000 213.31200000 145.45500000
O 144.73800000 213.31200000 150.67800000
O 144.73800000 213.31200000 155.90100000
O 144.73800000 181.53600000 148.06500000
O 144.73800000 187.14300000 137.62200000
O 144.73800000 187.14300000 142.84500000
O 144.73800000 187.14300000 148.06500000
O 144.73800000 187.14300000 153.28800000
O 144.73800000 187.14300000 158.51100000
O 144.73800000 192.75000000 137.62200000
O 144.73800000 192.75000000 142.84500000
O 144.73800000 192.75000000 148.06500000
O 144.73800000 192.75000000 153.28800000
O 144.73800000 198.36000000 137.62200000
O 144.73800000 192.75000000 158.51100000
O 144.73800000 192.75000000 163.73400000
O 144.73800000 198.36000000 142.84500000
O 144.73800000 198.36000000 148.06500000
O 144.73800000 198.36000000 153.28800000
O 144.73800000 198.36000000 158.51100000
O 144.73800000 198.36000000 163.73400000
O 144.73800000 203.96700000 137.62200000
O 144.73800000 203.96700000 142.84500000
O 144.73800000 203.96700000 148.06500000
O 144.73800000 203.96700000 153.28800000
O 144.73800000 203.96700000 158.51100000
O 144.73800000 203.96700000 163.73400000
O 144.73800000 209.57400000 142.84500000
O 144.73800000 209.57400000 148.06500000
O 144.73800000 209.57400000 153.28800000
O 144.73800000 209.57400000 158.51100000
O 146.35800000 182.47200000 145.45500000
O 146.35800000 182.47200000 150.67800000
O 146.35800000 182.47200000 155.90100000
O 146.35800000 188.07900000 140.23200000
O 146.35800000 188.07900000 145.45500000
O 146.35800000 188.07900000 150.67800000
O 146.35800000 193.68600000 135.01200000
O 146.35800000 188.07900000 155.90100000
O 146.35800000 193.68600000 140.23200000
O 146.35800000 193.68600000 145.45500000
O 146.35800000 188.07900000 161.12100000
O 146.35800000 193.68600000 150.67800000
O 146.35800000 199.29300000 135.01200000
O 146.35800000 193.68600000 155.90100000
O 146.35800000 199.29300000 140.23200000
O 146.35800000 199.29300000 145.45500000
O 146.35800000 193.68600000 161.12100000
O 146.35800000 193.68600000 166.34400000
O 146.35800000 199.29300000 150.67800000
O 146.35800000 199.29300000 155.90100000
O 146.35800000 204.90000000 135.01200000
O 146.35800000 199.29300000 161.12100000
O 146.35800000 199.29300000 166.34400000
O 146.35800000 204.90000000 140.23200000
O 146.35800000 204.90000000 145.45500000
O 146.35800000 204.90000000 150.67800000
O 146.35800000 204.90000000 155.90100000
O 146.35800000 204.90000000 161.12100000
O 146.35800000 210.50700000 140.23200000
O 146.35800000 210.50700000 145.45500000
O 146.35800000 210.50700000 150.67800000
O 146.35800000 210.50700000 155.90100000
O 146.35800000 210.50700000 161.12100000
O 146.35800000 184.34100000 142.84500000
O 146.35800000 184.34100000 148.06500000
O 146.35800000 184.34100000 153.28800000
O 146.35800000 189.94800000 137.62200000
O 146.35800000 184.34100000 158.51100000
O 146.35800000 189.94800000 142.84500000
O 146.35800000 189.94800000 148.06500000
O 146.35800000 189.94800000 153.28800000
O 146.35800000 189.94800000 158.51100000
O 146.35800000 189.94800000 163.73400000
O 146.35800000 195.55500000 137.62200000
O 146.35800000 195.55500000 142.84500000
O 146.35800000 195.55500000 148.06500000
O 146.35800000 195.55500000 153.28800000
O 146.35800000 195.55500000 158.51100000
O 146.35800000 195.55500000 163.73400000
O 146.35800000 201.16200000 137.62200000
O 146.35800000 201.16200000 142.84500000
O 146.35800000 201.16200000 148.06500000
O 146.35800000 201.16200000 153.28800000
O 146.35800000 201.16200000 158.51100000
O 146.35800000 206.76900000 137.62200000
O 146.35800000 201.16200000 163.73400000
O 146.35800000 206.76900000 142.84500000
O 146.35800000 206.76900000 148.06500000
O 146.35800000 206.76900000 153.28800000
O 146.35800000 206.76900000 158.51100000
O 146.35800000 206.76900000 163.73400000
O 146.35800000 212.37600000 142.84500000
O 146.35800000 212.37600000 148.06500000
O 146.35800000 212.37600000 153.28800000
O 146.35800000 212.37600000 158.51100000
O 147.97800000 185.27400000 140.23200000
O 147.97800000 185.27400000 145.45500000
O 147.97800000 185.27400000 150.67800000
O 147.97800000 185.27400000 155.90100000
O 147.97800000 185.27400000 161.12100000
O 147.97800000 190.88100000 135.01200000
O 147.97800000 190.88100000 140.23200000
O 147.97800000 190.88100000 145.45500000
O 147.97800000 196.49100000 135.01200000
O 147.97800000 190.88100000 150.67800000
O 147.97800000 196.49100000 140.23200000
O 147.97800000 196.49100000 145.45500000
O 147.97800000 190.88100000 155.90100000
O 147.97800000 196.49100000 150.67800000
O 147.97800000 190.88100000 161.12100000
O 147.97800000 196.49100000 155.90100000
O 147.97800000 196.49100000 161.12100000
O 147.97800000 196.49100000 166.34400000
O 147.97800000 202.09800000 135.01200000
O 147.97800000 202.09800000 140.23200000
O 147.97800000 202.09800000 145.45500000
O 147.97800000 202.09800000 150.67800000
O 147.97800000 202.09800000 155.90100000
O 147.97800000 202.09800000 161.12100000
O 147.97800000 202.09800000 166.34400000
O 147.97800000 207.70500000 140.23200000
O 147.97800000 207.70500000 145.45500000
O 147.97800000 207.70500000 150.67800000
O 147.97800000 207.70500000 155.90100000
O 147.97800000 207.70500000 161.12100000
O 147.97800000 213.31200000 145.45500000
O 147.97800000 213.31200000 150.67800000
O 147.97800000 213.31200000 155.90100000
O 147.97800000 181.53600000 148.06500000
O 147.97800000 181.53600000 153.28800000
O 147.97800000 187.14300000 137.62200000
O 147.97800000 187.14300000 142.84500000
O 147.97800000 187.14300000 148.06500000
O 147.97800000 187.14300000 153.28800000
O 147.97800000 187.14300000 158.51100000
O 147.97800000 192.75000000 137.62200000
O 147.97800000 192.75000000 142.84500000
O 147.97800000 192.75000000 148.06500000
O 147.97800000 192.75000000 153.28800000
O 147.97800000 192.75000000 158.51100000
O 147.97800000 192.75000000 163.73400000
O 147.97800000 198.36000000 137.62200000
O 147.97800000 198.36000000 142.84500000
O 147.97800000 198.36000000 148.06500000
O 147.97800000 198.36000000 153.28800000
O 147.97800000 198.36000000 158.51100000
O 147.97800000 203.96700000 137.62200000
O 147.97800000 198.36000000 163.73400000
O 147.97800000 203.96700000 142.84500000
O 147.97800000 203.96700000 148.06500000
O 147.97800000 203.96700000 153.28800000
O 147.97800000 209.57400000 137.62200000
O 147.97800000 203.96700000 158.51100000
O 147.97800000 209.57400000 142.84500000
O 147.97800000 203.96700000 163.73400000
O 147.97800000 209.57400000 148.06500000
O 147.97800000 209.57400000 153.28800000
O 147.97800000 209.57400000 158.51100000
O 147.97800000 215.18100000 148.06500000
O 147.97800000 215.18100000 153.28800000
O 149.59500000 182.47200000 145.45500000
O 149.59500000 182.47200000 150.67800000
O 149.59500000 182.47200000 155.90100000
O 149.59500000 188.07900000 140.23200000
O 149.59500000 193.68600000 135.01200000
O 149.59500000 188.07900000 145.45500000
O 149.59500000 193.68600000 140.23200000
O 149.59500000 188.07900000 150.67800000
O 149.59500000 193.68600000 145.45500000
O 149.59500000 188.07900000 155.90100000
O 149.59500000 193.68600000 150.67800000
O 149.59500000 188.07900000 161.12100000
O 149.59500000 193.68600000 155.90100000
O 149.59500000 199.29300000 135.01200000
O 149.59500000 193.68600000 161.12100000
O 149.59500000 199.29300000 140.23200000
O 149.59500000 193.68600000 166.34400000
O 149.59500000 199.29300000 145.45500000
O 149.59500000 199.29300000 150.67800000
O 149.59500000 199.29300000 155.90100000
O 149.59500000 199.29300000 161.12100000
O 149.59500000 204.90000000 135.01200000
O 149.59500000 199.29300000 166.34400000
O 149.59500000 204.90000000 140.23200000
O 149.59500000 204.90000000 145.45500000
O 149.59500000 204.90000000 150.67800000
O 149.59500000 204.90000000 155.90100000
O 149.59500000 204.90000000 161.12100000
O 149.59500000 210.50700000 140.23200000
O 149.59500000 210.50700000 145.45500000
O 149.59500000 210.50700000 150.67800000
O 149.59500000 210.50700000 155.90100000
O 149.59500000 210.50700000 161.12100000
O 149.59500000 184.34100000 142.84500000
O 149.59500000 184.34100000 148.06500000
O 149.59500000 189.94800000 137.62200000
O 149.59500000 184.34100000 153.28800000
O 149.59500000 189.94800000 142.84500000
O 149.59500000 184.34100000 158.51100000
O 149.59500000 189.94800000 148.06500000
O 149.59500000 189.94800000 153.28800000
O 149.59500000 189.94800000 158.51100000
O 149.59500000 189.94800000 163.73400000
O 149.59500000 195.55500000 137.62200000
O 149.59500000 195.55500000 142.84500000
O 149.59500000 195.55500000 148.06500000
O 149.59500000 195.55500000 153.28800000
O 149.59500000 195.55500000 158.51100000
O 149.59500000 201.16200000 137.62200000
O 149.59500000 195.55500000 163.73400000
O 149.59500000 201.16200000 142.84500000
O 149.59500000 201.16200000 148.06500000
O 149.59500000 201.16200000 153.28800000
O 149.59500000 206.76900000 137.62200000
O 149.59500000 201.16200000 158.51100000
O 149.59500000 206.76900000 142.84500000
O 149.59500000 201.16200000 163.73400000
O 149.59500000 206.76900000 148.06500000
O 149.59500000 206.76900000 153.28800000
O 149.59500000 206.76900000 158.51100000
O 149.59500000 206.76900000 163.73400000
O 149.59500000 212.37600000 142.84500000
O 149.59500000 212.37600000 148.06500000
O 149.59500000 212.37600000 153.28800000
O 149.59500000 212.37600000 158.51100000
O 151.21500000 185.27400000 140.23200000
O 151.21500000 185.27400000 145.45500000
O 151.21500000 185.27400000 150.67800000
O 151.21500000 185.27400000 155.90100000
O 151.21500000 185.27400000 161.12100000
O 151.21500000 190.88100000 135.01200000
O 151.21500000 190.88100000 140.23200000
O 151.21500000 190.88100000 145.45500000
O 151.21500000 190.88100000 150.67800000
O 151.21500000 196.49100000 135.01200000
O 151.21500000 190.88100000 155.90100000
O 151.21500000 196.49100000 140.23200000
O 151.21500000 190.88100000 161.12100000
O 151.21500000 196.49100000 145.45500000
O 151.21500000 196.49100000 150.67800000
O 151.21500000 196.49100000 155.90100000
O 151.21500000 196.49100000 161.12100000
O 151.21500000 202.09800000 135.01200000
O 151.21500000 196.49100000 166.34400000
O 151.21500000 202.09800000 140.23200000
O 151.21500000 202.09800000 145.45500000
O 151.21500000 202.09800000 150.67800000
O 151.21500000 207.70500000 140.23200000
O 151.21500000 202.09800000 155.90100000
O 151.21500000 202.09800000 161.12100000
O 151.21500000 207.70500000 145.45500000
O 151.21500000 207.70500000 150.67800000
O 151.21500000 202.09800000 166.34400000
O 151.21500000 207.70500000 155.90100000
O 151.21500000 207.70500000 161.12100000
O 151.21500000 213.31200000 145.45500000
O 151.21500000 213.31200000 150.67800000
O 151.21500000 213.31200000 155.90100000
O 151.21500000 181.53600000 148.06500000
O 151.21500000 181.53600000 153.28800000
O 151.21500000 187.14300000 137.62200000
O 151.21500000 187.14300000 142.84500000
O 151.21500000 187.14300000 148.06500000
O 151.21500000 187.14300000 153.28800000
O 151.21500000 187.14300000 158.51100000
O 151.21500000 187.14300000 163.73400000
O 151.21500000 192.75000000 137.62200000
O 151.21500000 192.75000000 142.84500000
O 151.21500000 192.75000000 148.06500000
O 151.21500000 192.75000000 153.28800000
O 151.21500000 192.75000000 158.51100000
O 151.21500000 192.75000000 163.73400000
O 151.21500000 198.36000000 137.62200000
O 151.21500000 198.36000000 142.84500000
O 151.21500000 198.36000000 148.06500000
O 151.21500000 198.36000000 153.28800000
O 151.21500000 203.96700000 137.62200000
O 151.21500000 198.36000000 158.51100000
O 151.21500000 203.96700000 142.84500000
O 151.21500000 203.96700000 148.06500000
O 151.21500000 198.36000000 163.73400000
O 151.21500000 203.96700000 153.28800000
O 151.21500000 203.96700000 158.51100000
O 151.21500000 209.57400000 137.62200000
O 151.21500000 203.96700000 163.73400000
O 151.21500000 209.57400000 142.84500000
O 151.21500000 209.57400000 148.06500000
O 151.21500000 209.57400000 153.28800000
O 151.21500000 209.57400000 158.51100000
O 151.21500000 215.18100000 148.06500000
O 151.21500000 215.18100000 153.28800000
O 152.83200000 182.47200000 145.45500000
O 152.83200000 182.47200000 150.67800000
O 152.83200000 182.47200000 155.90100000
O 152.83200000 188.07900000 140.23200000
O 152.83200000 188.07900000 145.45500000
O 152.83200000 188.07900000 150.67800000
O 152.83200000 193.68600000 135.01200000
O 152.83200000 188.07900000 155.90100000
O 152.83200000 193.68600000 140.23200000
O 152.83200000 193.68600000 145.45500000
O 152.83200000 188.07900000 161.12100000
O 152.83200000 193.68600000 150.67800000
O 152.83200000 193.68600000 155.90100000
O 152.83200000 193.68600000 161.12100000
O 152.83200000 193.68600000 166.34400000
O 152.83200000 199.29300000 135.01200000
O 152.83200000 199.29300000 140.23200000
O 152.83200000 199.29300000 145.45500000
O 152.83200000 199.29300000 150.67800000
O 152.83200000 199.29300000 155.90100000
O 152.83200000 204.90000000 135.01200000
O 152.83200000 199.29300000 161.12100000
O 152.83200000 199.29300000 166.34400000
O 152.83200000 204.90000000 140.23200000
O 152.83200000 204.90000000 145.45500000
O 152.83200000 204.90000000 150.67800000
O 152.83200000 204.90000000 155.90100000
O 152.83200000 204.90000000 161.12100000
O 152.83200000 210.50700000 140.23200000
O 152.83200000 210.50700000 145.45500000
O 152.83200000 210.50700000 150.67800000
O 152.83200000 210.50700000 155.90100000
O 152.83200000 210.50700000 161.12100000
O 152.83200000 184.34100000 142.84500000
O 152.83200000 184.34100000 148.06500000
O 152.83200000 184.34100000 153.28800000
O 152.83200000 184.34100000 158.51100000
O 152.83200000 189.94800000 137.62200000
O 152.83200000 189.94800000 142.84500000
O 152.83200000 189.94800000 148.06500000
O 152.83200000 189.94800000 153.28800000
O 152.83200000 189.94800000 158.51100000
O 152.83200000 189.94800000 163.73400000
O 152.83200000 195.55500000 137.62200000
O 152.83200000 195.55500000 142.84500000
O 152.83200000 195.55500000 148.06500000
O 152.83200000 195.55500000 153.28800000
O 152.83200000 201.16200000 137.62200000
O 152.83200000 195.55500000 158.51100000
O 152.83200000 201.16200000 142.84500000
O 152.83200000 195.55500000 163.73400000
O 152.83200000 201.16200000 148.06500000
O 152.83200000 201.16200000 153.28800000
O 152.83200000 201.16200000 158.51100000
O 152.83200000 206.76900000 137.62200000
O 152.83200000 201.16200000 163.73400000
O 152.83200000 206.76900000 142.84500000
O 152.83200000 206.76900000 148.06500000
O 152.83200000 206.76900000 153.28800000
O 152.83200000 206.76900000 158.51100000
O 152.83200000 206.76900000 163.73400000
O 152.83200000 212.37600000 142.84500000
O 152.83200000 212.37600000 148.06500000
O 152.83200000 212.37600000 153.28800000
O 152.83200000 212.37600000 158.51100000
O 154.45200000 185.27400000 140.23200000
O 154.45200000 185.27400000 145.45500000
O 154.45200000 185.27400000 150.67800000
O 154.45200000 185.27400000 155.90100000
O 154.45200000 185.27400000 161.12100000
O 154.45200000 190.88100000 135.01200000
O 154.45200000 190.88100000 140.23200000
O 154.45200000 190.88100000 145.45500000
O 154.45200000 190.88100000 150.67800000
O 154.45200000 190.88100000 155.90100000
O 154.45200000 190.88100000 161.12100000
O 154.45200000 196.49100000 135.01200000
O 154.45200000 196.49100000 140.23200000
O 154.45200000 196.49100000 145.45500000
O 154.45200000 196.49100000 150.67800000
O 154.45200000 196.49100000 155.90100000
O 154.45200000 202.09800000 135.01200000
O 154.45200000 202.09800000 140.23200000
O 154.45200000 196.49100000 161.12100000
O 154.45200000 196.49100000 166.34400000
O 154.45200000 202.09800000 145.45500000
O 154.45200000 202.09800000 150.67800000
O 154.45200000 202.09800000 155.90100000
O 154.45200000 207.70500000 140.23200000
O 154.45200000 202.09800000 161.12100000
O 154.45200000 202.09800000 166.34400000
O 154.45200000 207.70500000 145.45500000
O 154.45200000 207.70500000 150.67800000
O 154.45200000 207.70500000 155.90100000
O 154.45200000 207.70500000 161.12100000
O 154.45200000 213.31200000 145.45500000
O 154.45200000 213.31200000 150.67800000
O 154.45200000 213.31200000 155.90100000
O 154.45200000 181.53600000 148.06500000
O 154.45200000 181.53600000 153.28800000
O 154.45200000 187.14300000 137.62200000
O 154.45200000 187.14300000 142.84500000
O 154.45200000 187.14300000 148.06500000
O 154.45200000 187.14300000 153.28800000
O 154.45200000 192.75000000 137.62200000
O 154.45200000 187.14300000 158.51100000
O 154.45200000 192.75000000 142.84500000
O 154.45200000 192.75000000 148.06500000
O 154.45200000 192.75000000 153.28800000
O 154.45200000 198.36000000 137.62200000
O 154.45200000 192.75000000 158.51100000
O 154.45200000 192.75000000 163.73400000
O 154.45200000 198.36000000 142.84500000
O 154.45200000 198.36000000 148.06500000
O 154.45200000 198.36000000 153.28800000
O 154.45200000 198.36000000 158.51100000
O 154.45200000 198.36000000 163.73400000
O 154.45200000 203.96700000 137.62200000
O 154.45200000 203.96700000 142.84500000
O 154.45200000 203.96700000 148.06500000
O 154.45200000 203.96700000 153.28800000
O 154.45200000 209.57400000 137.62200000
O 154.45200000 203.96700000 158.51100000
O 154.45200000 203.96700000 163.73400000
O 154.45200000 209.57400000 142.84500000
O 154.45200000 209.57400000 148.06500000
O 154.45200000 209.57400000 153.28800000
O 154.45200000 209.57400000 158.51100000
O 156.06900000 182.47200000 145.45500000
O 156.06900000 182.47200000 150.67800000
O 156.06900000 188.07900000 140.23200000
O 156.06900000 188.07900000 145.45500000
O 156.06900000 188.07900000 150.67800000
O 156.06900000 188.07900000 155.90100000
O 156.06900000 193.68600000 135.01200000
O 156.06900000 193.68600000 140.23200000
O 156.06900000 188.07900000 161.12100000
O 156.06900000 193.68600000 145.45500000
O 156.06900000 193.68600000 150.67800000
O 156.06900000 193.68600000 155.90100000
O 156.06900000 193.68600000 161.12100000
O 156.06900000 199.29300000 135.01200000
O 156.06900000 199.29300000 140.23200000
O 156.06900000 199.29300000 145.45500000
O 156.06900000 199.29300000 150.67800000
O 156.06900000 199.29300000 155.90100000
O 156.06900000 204.90000000 135.01200000
O 156.06900000 204.90000000 140.23200000
O 156.06900000 199.29300000 161.12100000
O 156.06900000 199.29300000 166.34400000
O 156.06900000 204.90000000 145.45500000
O 156.06900000 204.90000000 150.67800000
O 156.06900000 204.90000000 155.90100000
O 156.06900000 204.90000000 161.12100000
O 156.06900000 210.50700000 140.23200000
O 156.06900000 210.50700000 145.45500000
O 156.06900000 210.50700000 150.67800000
O 156.06900000 210.50700000 155.90100000
O 156.06900000 184.34100000 142.84500000
O 156.06900000 184.34100000 148.06500000
O 156.06900000 184.34100000 153.28800000
O 156.06900000 189.94800000 137.62200000
O 156.06900000 184.34100000 158.51100000
O 156.06900000 189.94800000 142.84500000
O 156.06900000 189.94800000 148.06500000
O 156.06900000 189.94800000 153.28800000
O 156.06900000 195.55500000 137.62200000
O 156.06900000 189.94800000 158.51100000
O 156.06900000 189.94800000 163.73400000
O 156.06900000 195.55500000 142.84500000
O 156.06900000 195.55500000 148.06500000
O 156.06900000 195.55500000 153.28800000
O 156.06900000 201.16200000 137.62200000
O 156.06900000 195.55500000 158.51100000
O 156.06900000 195.55500000 163.73400000
O 156.06900000 201.16200000 142.84500000
O 156.06900000 201.16200000 148.06500000
O 156.06900000 201.16200000 153.28800000
O 156.06900000 201.16200000 158.51100000
O 156.06900000 201.16200000 163.73400000
O 156.06900000 206.76900000 137.62200000
O 156.06900000 206.76900000 142.84500000
O 156.06900000 206.76900000 148.06500000
O 156.06900000 206.76900000 153.28800000
O 156.06900000 206.76900000 158.51100000
O 156.06900000 206.76900000 163.73400000
O 156.06900000 212.37600000 142.84500000
O 156.06900000 212.37600000 148.06500000
O 156.06900000 212.37600000 153.28800000
O 157.68900000 185.27400000 145.45500000
O 157.68900000 185.27400000 150.67800000
O 157.68900000 185.27400000 155.90100000
O 157.68900000 190.88100000 140.23200000
O 157.68900000 190.88100000 145.45500000
O 157.68900000 190.88100000 150.67800000
O 157.68900000 190.88100000 155.90100000
O 157.68900000 190.88100000 161.12100000
O 157.68900000 196.49100000 135.01200000
O 157.68900000 196.49100000 140.23200000
O 157.68900000 196.49100000 145.45500000
O 157.68900000 196.49100000 150.67800000
O 157.68900000 196.49100000 155.90100000
O 157.68900000 202.09800000 135.01200000
O 157.68900000 202.09800000 140.23200000
O 157.68900000 196.49100000 161.12100000
O 157.68900000 202.09800000 145.45500000
O 157.68900000 202.09800000 150.67800000
O 157.68900000 202.09800000 155.90100000
O 157.68900000 207.70500000 140.23200000
O 157.68900000 202.09800000 161.12100000
O 157.68900000 207.70500000 145.45500000
O 157.68900000 207.70500000 150.67800000
O 157.68900000 207.70500000 155.90100000
O 157.68900000 207.70500000 161.12100000
O 157.68900000 213.31200000 145.45500000
O 157.68900000 213.31200000 150.67800000
O 157.68900000 187.14300000 142.84500000
O 157.68900000 187.14300000 148.06500000
O 157.68900000 187.14300000 153.28800000
O 157.68900000 192.75000000 137.62200000
O 157.68900000 187.14300000 158.51100000
O 157.68900000 192.75000000 142.84500000
O 157.68900000 192.75000000 148.06500000
O 157.68900000 192.75000000 153.28800000
O 157.68900000 198.36000000 137.62200000
O 157.68900000 192.75000000 158.51100000
O 157.68900000 192.75000000 163.73400000
O 157.68900000 198.36000000 142.84500000
O 157.68900000 198.36000000 148.06500000
O 157.68900000 198.36000000 153.28800000
O 157.68900000 198.36000000 158.51100000
O 157.68900000 198.36000000 163.73400000
O 157.68900000 203.96700000 137.62200000
O 157.68900000 203.96700000 142.84500000
O 157.68900000 203.96700000 148.06500000
O 157.68900000 203.96700000 153.28800000
O 157.68900000 203.96700000 158.51100000
O 157.68900000 203.96700000 163.73400000
O 157.68900000 209.57400000 142.84500000
O 157.68900000 209.57400000 148.06500000
O 157.68900000 209.57400000 153.28800000
O 157.68900000 209.57400000 158.51100000
O 159.30900000 188.07900000 140.23200000
O 159.30900000 188.07900000 145.45500000
O 159.30900000 188.07900000 150.67800000
O 159.30900000 188.07900000 155.90100000
O 159.30900000 193.68600000 140.23200000
O 159.30900000 193.68600000 145.45500000
O 159.30900000 193.68600000 150.67800000
O 159.30900000 193.68600000 155.90100000
O 159.30900000 193.68600000 161.12100000
O 159.30900000 199.29300000 140.23200000
O 159.30900000 199.29300000 145.45500000
O 159.30900000 199.29300000 150.67800000
O 159.30900000 199.29300000 155.90100000
O 159.30900000 199.29300000 161.12100000
O 159.30900000 204.90000000 140.23200000
O 159.30900000 204.90000000 145.45500000
O 159.30900000 204.90000000 150.67800000
O 159.30900000 204.90000000 155.90100000
O 159.30900000 204.90000000 161.12100000
O 159.30900000 210.50700000 145.45500000
O 159.30900000 210.50700000 150.67800000
O 159.30900000 210.50700000 155.90100000
O 159.30900000 184.34100000 148.06500000
O 159.30900000 184.34100000 153.28800000
O 159.30900000 189.94800000 137.62200000
O 159.30900000 189.94800000 142.84500000
O 159.30900000 189.94800000 148.06500000
O 159.30900000 189.94800000 153.28800000
O 159.30900000 189.94800000 158.51100000
O 159.30900000 195.55500000 137.62200000
O 159.30900000 195.55500000 142.84500000
O 159.30900000 195.55500000 148.06500000
O 159.30900000 195.55500000 153.28800000
O 159.30900000 195.55500000 158.51100000
O 159.30900000 195.55500000 163.73400000
O 159.30900000 201.16200000 137.62200000
O 159.30900000 201.16200000 142.84500000
O 159.30900000 201.16200000 148.06500000
O 159.30900000 201.16200000 153.28800000
O 159.30900000 201.16200000 158.51100000
O 159.30900000 201.16200000 163.73400000
O 159.30900000 206.76900000 142.84500000
O 159.30900000 206.76900000 148.06500000
O 159.30900000 206.76900000 153.28800000
O 159.30900000 206.76900000 158.51100000
O 159.30900000 212.37600000 148.06500000
O 159.30900000 212.37600000 153.28800000
O 160.92600000 185.27400000 145.45500000
O 160.92600000 185.27400000 150.67800000
O 160.92600000 190.88100000 140.23200000
O 160.92600000 190.88100000 145.45500000
O 160.92600000 190.88100000 150.67800000
O 160.92600000 190.88100000 155.90100000
O 160.92600000 190.88100000 161.12100000
O 160.92600000 196.49100000 140.23200000
O 160.92600000 196.49100000 145.45500000
O 160.92600000 196.49100000 150.67800000
O 160.92600000 196.49100000 155.90100000
O 160.92600000 196.49100000 161.12100000
O 160.92600000 202.09800000 140.23200000
O 160.92600000 202.09800000 145.45500000
O 160.92600000 202.09800000 150.67800000
O 160.92600000 202.09800000 155.90100000
O 160.92600000 202.09800000 161.12100000
O 160.92600000 207.70500000 140.23200000
O 160.92600000 207.70500000 145.45500000
O 160.92600000 207.70500000 150.67800000
O 160.92600000 207.70500000 155.90100000
O 160.92600000 187.14300000 142.84500000
O 160.92600000 187.14300000 148.06500000
O 160.92600000 187.14300000 153.28800000
O 160.92600000 192.75000000 137.62200000
O 160.92600000 192.75000000 142.84500000
O 160.92600000 192.75000000 148.06500000
O 160.92600000 192.75000000 153.28800000
O 160.92600000 192.75000000 158.51100000
O 160.92600000 198.36000000 137.62200000
O 160.92600000 198.36000000 142.84500000
O 160.92600000 198.36000000 148.06500000
O 160.92600000 198.36000000 153.28800000
O 160.92600000 198.36000000 158.51100000
O 160.92600000 198.36000000 163.73400000
O 160.92600000 203.96700000 137.62200000
O 160.92600000 203.96700000 142.84500000
O 160.92600000 203.96700000 148.06500000
O 160.92600000 203.96700000 153.28800000
O 160.92600000 203.96700000 158.51100000
O 160.92600000 209.57400000 142.84500000
O 160.92600000 209.57400000 148.06500000
O 160.92600000 209.57400000 153.28800000
O 162.54600000 188.07900000 145.45500000
O 162.54600000 188.07900000 150.67800000
O 162.54600000 188.07900000 155.90100000
O 162.54600000 193.68600000 140.23200000
O 162.54600000 193.68600000 145.45500000
O 162.54600000 193.68600000 150.67800000
O 162.54600000 193.68600000 155.90100000
O 162.54600000 193.68600000 161.12100000
O 162.54600000 199.29300000 140.23200000
O 162.54600000 199.29300000 145.45500000
O 162.54600000 199.29300000 150.67800000
O 162.54600000 199.29300000 155.90100000
O 162.54600000 199.29300000 161.12100000
O 162.54600000 204.90000000 140.23200000
O 162.54600000 204.90000000 145.45500000
O 162.54600000 204.90000000 150.67800000
O 162.54600000 204.90000000 155.90100000
O 162.54600000 189.94800000 142.84500000
O 162.54600000 189.94800000 148.06500000
O 162.54600000 189.94800000 153.28800000
O 162.54600000 189.94800000 158.51100000
O 162.54600000 195.55500000 142.84500000
O 162.54600000 195.55500000 148.06500000
O 162.54600000 195.55500000 153.28800000
O 162.54600000 195.55500000 158.51100000
O 162.54600000 201.16200000 142.84500000
O 162.54600000 201.16200000 148.06500000
O 162.54600000 201.16200000 153.28800000
O 162.54600000 201.16200000 158.51100000
O 162.54600000 206.76900000 142.84500000
O 162.54600000 206.76900000 148.06500000
O 162.54600000 206.76900000 153.28800000
O 162.54600000 206.76900000 158.51100000
O 164.16300000 190.88100000 145.45500000
O 164.16300000 190.88100000 150.67800000
O 164.16300000 190.88100000 155.90100000
O 164.16300000 196.49100000 140.23200000
O 164.16300000 196.49100000 145.45500000
O 164.16300000 196.49100000 150.67800000
O 164.16300000 196.49100000 155.90100000
O 164.16300000 202.09800000 145.45500000
O 164.16300000 202.09800000 150.67800000
O 164.16300000 202.09800000 155.90100000
O 164.16300000 207.70500000 150.67800000
O 164.16300000 192.75000000 142.84500000
O 164.16300000 192.75000000 148.06500000
O 164.16300000 192.75000000 153.28800000
O 164.16300000 192.75000000 158.51100000
O 164.16300000 198.36000000 142.84500000
O 164.16300000 198.36000000 148.06500000
O 164.16300000 198.36000000 153.28800000
O 164.16300000 198.36000000 158.51100000
O 164.16300000 203.96700000 142.84500000
O 164.16300000 203.96700000 148.06500000
O 164.16300000 203.96700000 153.28800000
O 164.16300000 203.96700000 158.51100000
O 165.78300000 193.68600000 145.45500000
O 165.78300000 193.68600000 150.67800000
O 165.78300000 193.68600000 155.90100000
O 165.78300000 199.29300000 145.45500000
O 165.78300000 199.29300000 150.67800000
O 165.78300000 199.29300000 155.90100000
O 165.78300000 204.90000000 150.67800000
O 165.78300000 195.55500000 142.84500000
O 165.78300000 195.55500000 148.06500000
O 165.78300000 195.55500000 153.28800000
O 165.78300000 201.16200000 142.84500000
O 165.78300000 201.16200000 148.06500000
O 165.78300000 201.16200000 153.28800000
O 167.40000000 196.49100000 150.67800000
O 167.40000000 198.36000000 148.06500000
Zn 133.40700000 193.68600000 148.69800000
Zn 133.40700000 199.29300000 148.69800000
Zn 133.40700000 199.29300000 153.92100000
Zn 133.40700000 195.55500000 146.08800000
Zn 133.40700000 195.55500000 151.30800000
Zn 133.40700000 201.16200000 146.08800000
Zn 133.40700000 201.16200000 151.30800000
Zn 135.02700000 190.88100000 148.69800000
Zn 135.02700000 190.88100000 153.92100000
Zn 135.02700000 196.49100000 143.47500000
Zn 135.02700000 196.49100000 148.69800000
Zn 135.02700000 196.49100000 153.92100000
Zn 135.02700000 202.09800000 143.47500000
Zn 135.02700000 202.09800000 148.69800000
Zn 135.02700000 202.09800000 153.92100000
Zn 135.02700000 192.75000000 146.08800000
Zn 135.02700000 192.75000000 151.30800000
Zn 135.02700000 192.75000000 156.53100000
Zn 135.02700000 198.36000000 140.86500000
Zn 135.02700000 198.36000000 146.08800000
Zn 135.02700000 198.36000000 151.30800000
Zn 135.02700000 198.36000000 156.53100000
Zn 135.02700000 203.96700000 146.08800000
Zn 135.02700000 203.96700000 151.30800000
Zn 135.02700000 203.96700000 156.53100000
Zn 136.64700000 188.07900000 148.69800000
Zn 136.64700000 188.07900000 153.92100000
Zn 136.64700000 193.68600000 143.47500000
Zn 136.64700000 193.68600000 148.69800000
Zn 136.64700000 193.68600000 153.92100000
Zn 136.64700000 193.68600000 159.14100000
Zn 136.64700000 199.29300000 143.47500000
Zn 136.64700000 199.29300000 148.69800000
Zn 136.64700000 199.29300000 153.92100000
Zn 136.64700000 199.29300000 159.14100000
Zn 136.64700000 204.90000000 143.47500000
Zn 136.64700000 204.90000000 148.69800000
Zn 136.64700000 204.90000000 153.92100000
Zn 136.64700000 204.90000000 159.14100000
Zn 136.64700000 189.94800000 146.08800000
Zn 136.64700000 189.94800000 151.30800000
Zn 136.64700000 189.94800000 156.53100000
Zn 136.64700000 195.55500000 140.86500000
Zn 136.64700000 195.55500000 146.08800000
Zn 136.64700000 195.55500000 151.30800000
Zn 136.64700000 195.55500000 156.53100000
Zn 136.64700000 201.16200000 140.86500000
Zn 136.64700000 201.16200000 146.08800000
Zn 136.64700000 201.16200000 151.30800000
Zn 136.64700000 201.16200000 156.53100000
Zn 136.64700000 206.76900000 146.08800000
Zn 136.64700000 206.76900000 151.30800000
Zn 136.64700000 206.76900000 156.53100000
Zn 138.26400000 185.27400000 148.69800000
Zn 138.26400000 190.88100000 143.47500000
Zn 138.26400000 190.88100000 148.69800000
Zn 138.26400000 190.88100000 153.92100000
Zn 138.26400000 190.88100000 159.14100000
Zn 138.26400000 196.49100000 138.25200000
Zn 138.26400000 196.49100000 143.47500000
Zn 138.26400000 196.49100000 148.69800000
Zn 138.26400000 196.49100000 153.92100000
Zn 138.26400000 196.49100000 159.14100000
Zn 138.26400000 202.09800000 138.25200000
Zn 138.26400000 202.09800000 143.47500000
Zn 138.26400000 202.09800000 148.69800000
Zn 138.26400000 202.09800000 153.92100000
Zn 138.26400000 202.09800000 159.14100000
Zn 138.26400000 207.70500000 143.47500000
Zn 138.26400000 207.70500000 148.69800000
Zn 138.26400000 207.70500000 153.92100000
Zn 138.26400000 187.14300000 146.08800000
Zn 138.26400000 187.14300000 151.30800000
Zn 138.26400000 187.14300000 156.53100000
Zn 138.26400000 192.75000000 140.86500000
Zn 138.26400000 192.75000000 146.08800000
Zn 138.26400000 192.75000000 151.30800000
Zn 138.26400000 192.75000000 156.53100000
Zn 138.26400000 192.75000000 161.75400000
Zn 138.26400000 198.36000000 140.86500000
Zn 138.26400000 198.36000000 146.08800000
Zn 138.26400000 198.36000000 151.30800000
Zn 138.26400000 198.36000000 156.53100000
Zn 138.26400000 198.36000000 161.75400000
Zn 138.26400000 203.96700000 140.86500000
Zn 138.26400000 203.96700000 146.08800000
Zn 138.26400000 203.96700000 151.30800000
Zn 138.26400000 203.96700000 156.53100000
Zn 138.26400000 203.96700000 161.75400000
Zn 138.26400000 209.57400000 146.08800000
Zn 138.26400000 209.57400000 151.30800000
Zn 139.88400000 188.07900000 143.47500000
Zn 139.88400000 188.07900000 148.69800000
Zn 139.88400000 188.07900000 153.92100000
Zn 139.88400000 188.07900000 159.14100000
Zn 139.88400000 193.68600000 138.25200000
Zn 139.88400000 193.68600000 143.47500000
Zn 139.88400000 193.68600000 148.69800000
Zn 139.88400000 193.68600000 153.92100000
Zn 139.88400000 193.68600000 159.14100000
Zn 139.88400000 199.29300000 138.25200000
Zn 139.88400000 199.29300000 143.47500000
Zn 139.88400000 199.29300000 148.69800000
Zn 139.88400000 199.29300000 153.92100000
Zn 139.88400000 199.29300000 159.14100000
Zn 139.88400000 204.90000000 138.25200000
Zn 139.88400000 204.90000000 143.47500000
Zn 139.88400000 204.90000000 148.69800000
Zn 139.88400000 204.90000000 153.92100000
Zn 139.88400000 204.90000000 159.14100000
Zn 139.88400000 210.50700000 143.47500000
Zn 139.88400000 210.50700000 148.69800000
Zn 139.88400000 210.50700000 153.92100000
Zn 139.88400000 184.34100000 146.08800000
Zn 139.88400000 184.34100000 151.30800000
Zn 139.88400000 189.94800000 140.86500000
Zn 139.88400000 189.94800000 146.08800000
Zn 139.88400000 189.94800000 151.30800000
Zn 139.88400000 189.94800000 156.53100000
Zn 139.88400000 189.94800000 161.75400000
Zn 139.88400000 195.55500000 140.86500000
Zn 139.88400000 195.55500000 146.08800000
Zn 139.88400000 195.55500000 151.30800000
Zn 139.88400000 195.55500000 156.53100000
Zn 139.88400000 195.55500000 161.75400000
Zn 139.88400000 201.16200000 140.86500000
Zn 139.88400000 201.16200000 146.08800000
Zn 139.88400000 201.16200000 151.30800000
Zn 139.88400000 201.16200000 156.53100000
Zn 139.88400000 201.16200000 161.75400000
Zn 139.88400000 206.76900000 140.86500000
Zn 139.88400000 206.76900000 146.08800000
Zn 139.88400000 206.76900000 151.30800000
Zn 139.88400000 206.76900000 156.53100000
Zn 139.88400000 212.37600000 151.30800000
Zn 141.50100000 185.27400000 143.47500000
Zn 141.50100000 185.27400000 148.69800000
Zn 141.50100000 185.27400000 153.92100000
Zn 141.50100000 190.88100000 138.25200000
Zn 141.50100000 190.88100000 143.47500000
Zn 141.50100000 190.88100000 148.69800000
Zn 141.50100000 190.88100000 153.92100000
Zn 141.50100000 190.88100000 159.14100000
Zn 141.50100000 196.49100000 138.25200000
Zn 141.50100000 196.49100000 143.47500000
Zn 141.50100000 196.49100000 148.69800000
Zn 141.50100000 196.49100000 153.92100000
Zn 141.50100000 196.49100000 159.14100000
Zn 141.50100000 196.49100000 164.36400000
Zn 141.50100000 202.09800000 138.25200000
Zn 141.50100000 202.09800000 143.47500000
Zn 141.50100000 202.09800000 148.69800000
Zn 141.50100000 202.09800000 153.92100000
Zn 141.50100000 202.09800000 159.14100000
Zn 141.50100000 202.09800000 164.36400000
Zn 141.50100000 207.70500000 138.25200000
Zn 141.50100000 207.70500000 143.47500000
Zn 141.50100000 207.70500000 148.69800000
Zn 141.50100000 207.70500000 153.92100000
Zn 141.50100000 207.70500000 159.14100000
Zn 141.50100000 213.31200000 148.69800000
Zn 141.50100000 187.14300000 140.86500000
Zn 141.50100000 187.14300000 146.08800000
Zn 141.50100000 187.14300000 151.30800000
Zn 141.50100000 187.14300000 156.53100000
Zn 141.50100000 192.75000000 135.64200000
Zn 141.50100000 192.75000000 140.86500000
Zn 141.50100000 192.75000000 146.08800000
Zn 141.50100000 192.75000000 151.30800000
Zn 141.50100000 192.75000000 156.53100000
Zn 141.50100000 192.75000000 161.75400000
Zn 141.50100000 198.36000000 135.64200000
Zn 141.50100000 198.36000000 140.86500000
Zn 141.50100000 198.36000000 146.08800000
Zn 141.50100000 198.36000000 151.30800000
Zn 141.50100000 198.36000000 156.53100000
Zn 141.50100000 198.36000000 161.75400000
Zn 141.50100000 203.96700000 140.86500000
Zn 141.50100000 203.96700000 146.08800000
Zn 141.50100000 203.96700000 151.30800000
Zn 141.50100000 203.96700000 156.53100000
Zn 141.50100000 203.96700000 161.75400000
Zn 141.50100000 209.57400000 140.86500000
Zn 141.50100000 209.57400000 146.08800000
Zn 141.50100000 209.57400000 151.30800000
Zn 141.50100000 209.57400000 156.53100000
Zn 143.12100000 182.47200000 148.69800000
Zn 143.12100000 182.47200000 153.92100000
Zn 143.12100000 188.07900000 138.25200000
Zn 143.12100000 188.07900000 143.47500000
Zn 143.12100000 188.07900000 148.69800000
Zn 143.12100000 188.07900000 153.92100000
Zn 143.12100000 193.68600000 138.25200000
Zn 143.12100000 188.07900000 159.14100000
Zn 143.12100000 193.68600000 143.47500000
Zn 143.12100000 193.68600000 148.69800000
Zn 143.12100000 193.68600000 153.92100000
Zn 143.12100000 193.68600000 159.14100000
Zn 143.12100000 193.68600000 164.36400000
Zn 143.12100000 199.29300000 138.25200000
Zn 143.12100000 199.29300000 143.47500000
Zn 143.12100000 199.29300000 148.69800000
Zn 143.12100000 199.29300000 153.92100000
Zn 143.12100000 204.90000000 138.25200000
Zn 143.12100000 199.29300000 159.14100000
Zn 143.12100000 199.29300000 164.36400000
Zn 143.12100000 204.90000000 143.47500000
Zn 143.12100000 204.90000000 148.69800000
Zn 143.12100000 204.90000000 153.92100000
Zn 143.12100000 204.90000000 159.14100000
Zn 143.12100000 204.90000000 164.36400000
Zn 143.12100000 210.50700000 143.47500000
Zn 143.12100000 210.50700000 148.69800000
Zn 143.12100000 210.50700000 153.92100000
Zn 143.12100000 210.50700000 159.14100000
Zn 143.12100000 184.34100000 146.08800000
Zn 143.12100000 184.34100000 151.30800000
Zn 143.12100000 184.34100000 156.53100000
Zn 143.12100000 189.94800000 140.86500000
Zn 143.12100000 189.94800000 146.08800000
Zn 143.12100000 189.94800000 151.30800000
Zn 143.12100000 189.94800000 156.53100000
Zn 143.12100000 189.94800000 161.75400000
Zn 143.12100000 195.55500000 135.64200000
Zn 143.12100000 195.55500000 140.86500000
Zn 143.12100000 195.55500000 146.08800000
Zn 143.12100000 195.55500000 151.30800000
Zn 143.12100000 195.55500000 156.53100000
Zn 143.12100000 201.16200000 135.64200000
Zn 143.12100000 201.16200000 140.86500000
Zn 143.12100000 195.55500000 161.75400000
Zn 143.12100000 201.16200000 146.08800000
Zn 143.12100000 201.16200000 151.30800000
Zn 143.12100000 201.16200000 156.53100000
Zn 143.12100000 201.16200000 161.75400000
Zn 143.12100000 206.76900000 140.86500000
Zn 143.12100000 206.76900000 146.08800000
Zn 143.12100000 206.76900000 151.30800000
Zn 143.12100000 206.76900000 156.53100000
Zn 143.12100000 206.76900000 161.75400000
Zn 143.12100000 212.37600000 146.08800000
Zn 143.12100000 212.37600000 151.30800000
Zn 143.12100000 212.37600000 156.53100000
Zn 144.73800000 185.27400000 143.47500000
Zn 144.73800000 185.27400000 148.69800000
Zn 144.73800000 185.27400000 153.92100000
Zn 144.73800000 185.27400000 159.14100000
Zn 144.73800000 190.88100000 138.25200000
Zn 144.73800000 190.88100000 143.47500000
Zn 144.73800000 190.88100000 148.69800000
Zn 144.73800000 190.88100000 153.92100000
Zn 144.73800000 190.88100000 159.14100000
Zn 144.73800000 190.88100000 164.36400000
Zn 144.73800000 196.49100000 138.25200000
Zn 144.73800000 196.49100000 143.47500000
Zn 144.73800000 196.49100000 148.69800000
Zn 144.73800000 196.49100000 153.92100000
Zn 144.73800000 202.09800000 138.25200000
Zn 144.73800000 196.49100000 159.14100000
Zn 144.73800000 196.49100000 164.36400000
Zn 144.73800000 202.09800000 143.47500000
Zn 144.73800000 202.09800000 148.69800000
Zn 144.73800000 202.09800000 153.92100000
Zn 144.73800000 207.70500000 138.25200000
Zn 144.73800000 202.09800000 159.14100000
Zn 144.73800000 202.09800000 164.36400000
Zn 144.73800000 207.70500000 143.47500000
Zn 144.73800000 207.70500000 148.69800000
Zn 144.73800000 207.70500000 153.92100000
Zn 144.73800000 207.70500000 159.14100000
Zn 144.73800000 213.31200000 143.47500000
Zn 144.73800000 213.31200000 148.69800000
Zn 144.73800000 213.31200000 153.92100000
Zn 144.73800000 181.53600000 151.30800000
Zn 144.73800000 187.14300000 140.86500000
Zn 144.73800000 187.14300000 146.08800000
Zn 144.73800000 187.14300000 151.30800000
Zn 144.73800000 187.14300000 156.53100000
Zn 144.73800000 187.14300000 161.75400000
Zn 144.73800000 192.75000000 135.64200000
Zn 144.73800000 192.75000000 140.86500000
Zn 144.73800000 192.75000000 146.08800000
Zn 144.73800000 192.75000000 151.30800000
Zn 144.73800000 192.75000000 156.53100000
Zn 144.73800000 198.36000000 135.64200000
Zn 144.73800000 198.36000000 140.86500000
Zn 144.73800000 192.75000000 161.75400000
Zn 144.73800000 198.36000000 146.08800000
Zn 144.73800000 198.36000000 151.30800000
Zn 144.73800000 198.36000000 156.53100000
Zn 144.73800000 198.36000000 161.75400000
Zn 144.73800000 203.96700000 135.64200000
Zn 144.73800000 203.96700000 140.86500000
Zn 144.73800000 203.96700000 146.08800000
Zn 144.73800000 203.96700000 151.30800000
Zn 144.73800000 203.96700000 156.53100000
Zn 144.73800000 203.96700000 161.75400000
Zn 144.73800000 209.57400000 140.86500000
Zn 144.73800000 209.57400000 146.08800000
Zn 144.73800000 209.57400000 151.30800000
Zn 144.73800000 209.57400000 156.53100000
Zn 144.73800000 209.57400000 161.75400000
Zn 146.35800000 182.47200000 143.47500000
Zn 146.35800000 182.47200000 148.69800000
Zn 146.35800000 182.47200000 153.92100000
Zn 146.35800000 188.07900000 138.25200000
Zn 146.35800000 188.07900000 143.47500000
Zn 146.35800000 188.07900000 148.69800000
Zn 146.35800000 193.68600000 138.25200000
Zn 146.35800000 188.07900000 153.92100000
Zn 146.35800000 188.07900000 159.14100000
Zn 146.35800000 193.68600000 143.47500000
Zn 146.35800000 193.68600000 148.69800000
Zn 146.35800000 199.29300000 133.03200000
Zn 146.35800000 199.29300000 138.25200000
Zn 146.35800000 193.68600000 153.92100000
Zn 146.35800000 193.68600000 159.14100000
Zn 146.35800000 199.29300000 143.47500000
Zn 146.35800000 193.68600000 164.36400000
Zn 146.35800000 199.29300000 148.69800000
Zn 146.35800000 199.29300000 153.92100000
Zn 146.35800000 199.29300000 159.14100000
Zn 146.35800000 204.90000000 138.25200000
Zn 146.35800000 199.29300000 164.36400000
Zn 146.35800000 204.90000000 143.47500000
Zn 146.35800000 204.90000000 148.69800000
Zn 146.35800000 204.90000000 153.92100000
Zn 146.35800000 204.90000000 159.14100000
Zn 146.35800000 204.90000000 164.36400000
Zn 146.35800000 210.50700000 138.25200000
Zn 146.35800000 210.50700000 143.47500000
Zn 146.35800000 210.50700000 148.69800000
Zn 146.35800000 210.50700000 153.92100000
Zn 146.35800000 210.50700000 159.14100000
Zn 146.35800000 184.34100000 140.86500000
Zn 146.35800000 184.34100000 146.08800000
Zn 146.35800000 184.34100000 151.30800000
Zn 146.35800000 189.94800000 135.64200000
Zn 146.35800000 184.34100000 156.53100000
Zn 146.35800000 189.94800000 140.86500000
Zn 146.35800000 189.94800000 146.08800000
Zn 146.35800000 189.94800000 151.30800000
Zn 146.35800000 189.94800000 156.53100000
Zn 146.35800000 189.94800000 161.75400000
Zn 146.35800000 195.55500000 135.64200000
Zn 146.35800000 195.55500000 140.86500000
Zn 146.35800000 195.55500000 146.08800000
Zn 146.35800000 195.55500000 151.30800000
Zn 146.35800000 195.55500000 156.53100000
Zn 146.35800000 195.55500000 161.75400000
Zn 146.35800000 195.55500000 166.97400000
Zn 146.35800000 201.16200000 135.64200000
Zn 146.35800000 201.16200000 140.86500000
Zn 146.35800000 201.16200000 146.08800000
Zn 146.35800000 201.16200000 151.30800000
Zn 146.35800000 201.16200000 156.53100000
Zn 146.35800000 206.76900000 135.64200000
Zn 146.35800000 201.16200000 161.75400000
Zn 146.35800000 206.76900000 140.86500000
Zn 146.35800000 206.76900000 146.08800000
Zn 146.35800000 206.76900000 151.30800000
Zn 146.35800000 206.76900000 156.53100000
Zn 146.35800000 206.76900000 161.75400000
Zn 146.35800000 212.37600000 140.86500000
Zn 146.35800000 212.37600000 146.08800000
Zn 146.35800000 212.37600000 151.30800000
Zn 146.35800000 212.37600000 156.53100000
Zn 147.97800000 185.27400000 138.25200000
Zn 147.97800000 185.27400000 143.47500000
Zn 147.97800000 185.27400000 148.69800000
Zn 147.97800000 185.27400000 153.92100000
Zn 147.97800000 185.27400000 159.14100000
Zn 147.97800000 190.88100000 138.25200000
Zn 147.97800000 190.88100000 143.47500000
Zn 147.97800000 196.49100000 133.03200000
Zn 147.97800000 196.49100000 138.25200000
Zn 147.97800000 190.88100000 148.69800000
Zn 147.97800000 196.49100000 143.47500000
Zn 147.97800000 190.88100000 153.92100000
Zn 147.97800000 190.88100000 159.14100000
Zn 147.97800000 196.49100000 148.69800000
Zn 147.97800000 190.88100000 164.36400000
Zn 147.97800000 196.49100000 153.92100000
Zn 147.97800000 196.49100000 159.14100000
Zn 147.97800000 196.49100000 164.36400000
Zn 147.97800000 202.09800000 133.03200000
Zn 147.97800000 202.09800000 138.25200000
Zn 147.97800000 202.09800000 143.47500000
Zn 147.97800000 202.09800000 148.69800000
Zn 147.97800000 202.09800000 153.92100000
Zn 147.97800000 202.09800000 159.14100000
Zn 147.97800000 207.70500000 138.25200000
Zn 147.97800000 202.09800000 164.36400000
Zn 147.97800000 207.70500000 143.47500000
Zn 147.97800000 207.70500000 148.69800000
Zn 147.97800000 207.70500000 153.92100000
Zn 147.97800000 207.70500000 159.14100000
Zn 147.97800000 207.70500000 164.36400000
Zn 147.97800000 213.31200000 143.47500000
Zn 147.97800000 213.31200000 148.69800000
Zn 147.97800000 213.31200000 153.92100000
Zn 147.97800000 181.53600000 146.08800000
Zn 147.97800000 181.53600000 151.30800000
Zn 147.97800000 187.14300000 140.86500000
Zn 147.97800000 187.14300000 146.08800000
Zn 147.97800000 187.14300000 151.30800000
Zn 147.97800000 187.14300000 156.53100000
Zn 147.97800000 192.75000000 135.64200000
Zn 147.97800000 187.14300000 161.75400000
Zn 147.97800000 192.75000000 140.86500000
Zn 147.97800000 192.75000000 146.08800000
Zn 147.97800000 192.75000000 151.30800000
Zn 147.97800000 192.75000000 156.53100000
Zn 147.97800000 192.75000000 161.75400000
Zn 147.97800000 198.36000000 135.64200000
Zn 147.97800000 198.36000000 140.86500000
Zn 147.97800000 198.36000000 146.08800000
Zn 147.97800000 198.36000000 151.30800000
Zn 147.97800000 198.36000000 156.53100000
Zn 147.97800000 203.96700000 135.64200000
Zn 147.97800000 198.36000000 161.75400000
Zn 147.97800000 198.36000000 166.97400000
Zn 147.97800000 203.96700000 140.86500000
Zn 147.97800000 203.96700000 146.08800000
Zn 147.97800000 203.96700000 151.30800000
Zn 147.97800000 203.96700000 156.53100000
Zn 147.97800000 209.57400000 140.86500000
Zn 147.97800000 209.57400000 146.08800000
Zn 147.97800000 203.96700000 161.75400000
Zn 147.97800000 209.57400000 151.30800000
Zn 147.97800000 209.57400000 156.53100000
Zn 147.97800000 209.57400000 161.75400000
Zn 147.97800000 215.18100000 151.30800000
Zn 149.59500000 182.47200000 143.47500000
Zn 149.59500000 182.47200000 148.69800000
Zn 149.59500000 182.47200000 153.92100000
Zn 149.59500000 188.07900000 138.25200000
Zn 149.59500000 193.68600000 133.03200000
Zn 149.59500000 188.07900000 143.47500000
Zn 149.59500000 193.68600000 138.25200000
Zn 149.59500000 188.07900000 148.69800000
Zn 149.59500000 193.68600000 143.47500000
Zn 149.59500000 188.07900000 153.92100000
Zn 149.59500000 193.68600000 148.69800000
Zn 149.59500000 188.07900000 159.14100000
Zn 149.59500000 193.68600000 153.92100000
Zn 149.59500000 199.29300000 133.03200000
Zn 149.59500000 188.07900000 164.36400000
Zn 149.59500000 193.68600000 159.14100000
Zn 149.59500000 199.29300000 138.25200000
Zn 149.59500000 193.68600000 164.36400000
Zn 149.59500000 199.29300000 143.47500000
Zn 149.59500000 199.29300000 148.69800000
Zn 149.59500000 199.29300000 153.92100000
Zn 149.59500000 199.29300000 159.14100000
Zn 149.59500000 199.29300000 164.36400000
Zn 149.59500000 204.90000000 138.25200000
Zn 149.59500000 204.90000000 143.47500000
Zn 149.59500000 204.90000000 148.69800000
Zn 149.59500000 204.90000000 153.92100000
Zn 149.59500000 204.90000000 159.14100000
Zn 149.59500000 204.90000000 164.36400000
Zn 149.59500000 210.50700000 138.25200000
Zn 149.59500000 210.50700000 143.47500000
Zn 149.59500000 210.50700000 148.69800000
Zn 149.59500000 210.50700000 153.92100000
Zn 149.59500000 210.50700000 159.14100000
Zn 149.59500000 184.34100000 140.86500000
Zn 149.59500000 184.34100000 146.08800000
Zn 149.59500000 189.94800000 135.64200000
Zn 149.59500000 184.34100000 151.30800000
Zn 149.59500000 189.94800000 140.86500000
Zn 149.59500000 184.34100000 156.53100000
Zn 149.59500000 189.94800000 146.08800000
Zn 149.59500000 189.94800000 151.30800000
Zn 149.59500000 189.94800000 156.53100000
Zn 149.59500000 189.94800000 161.75400000
Zn 149.59500000 195.55500000 135.64200000
Zn 149.59500000 195.55500000 140.86500000
Zn 149.59500000 195.55500000 146.08800000
Zn 149.59500000 195.55500000 151.30800000
Zn 149.59500000 195.55500000 156.53100000
Zn 149.59500000 201.16200000 135.64200000
Zn 149.59500000 195.55500000 161.75400000
Zn 149.59500000 201.16200000 140.86500000
Zn 149.59500000 195.55500000 166.97400000
Zn 149.59500000 201.16200000 146.08800000
Zn 149.59500000 201.16200000 151.30800000
Zn 149.59500000 206.76900000 135.64200000
Zn 149.59500000 201.16200000 156.53100000
Zn 149.59500000 206.76900000 140.86500000
Zn 149.59500000 201.16200000 161.75400000
Zn 149.59500000 206.76900000 146.08800000
Zn 149.59500000 201.16200000 166.97400000
Zn 149.59500000 206.76900000 151.30800000
Zn 149.59500000 206.76900000 156.53100000
Zn 149.59500000 206.76900000 161.75400000
Zn 149.59500000 212.37600000 140.86500000
Zn 149.59500000 212.37600000 146.08800000
Zn 149.59500000 212.37600000 151.30800000
Zn 149.59500000 212.37600000 156.53100000
Zn 151.21500000 185.27400000 138.25200000
Zn 151.21500000 185.27400000 143.47500000
Zn 151.21500000 185.27400000 148.69800000
Zn 151.21500000 185.27400000 153.92100000
Zn 151.21500000 185.27400000 159.14100000
Zn 151.21500000 190.88100000 138.25200000
Zn 151.21500000 190.88100000 143.47500000
Zn 151.21500000 190.88100000 148.69800000
Zn 151.21500000 196.49100000 133.03200000
Zn 151.21500000 190.88100000 153.92100000
Zn 151.21500000 196.49100000 138.25200000
Zn 151.21500000 190.88100000 159.14100000
Zn 151.21500000 196.49100000 143.47500000
Zn 151.21500000 190.88100000 164.36400000
Zn 151.21500000 196.49100000 148.69800000
Zn 151.21500000 196.49100000 153.92100000
Zn 151.21500000 196.49100000 159.14100000
Zn 151.21500000 202.09800000 133.03200000
Zn 151.21500000 196.49100000 164.36400000
Zn 151.21500000 202.09800000 138.25200000
Zn 151.21500000 202.09800000 143.47500000
Zn 151.21500000 202.09800000 148.69800000
Zn 151.21500000 202.09800000 153.92100000
Zn 151.21500000 207.70500000 138.25200000
Zn 151.21500000 207.70500000 143.47500000
Zn 151.21500000 202.09800000 159.14100000
Zn 151.21500000 202.09800000 164.36400000
Zn 151.21500000 207.70500000 148.69800000
Zn 151.21500000 207.70500000 153.92100000
Zn 151.21500000 207.70500000 159.14100000
Zn 151.21500000 207.70500000 164.36400000
Zn 151.21500000 213.31200000 143.47500000
Zn 151.21500000 213.31200000 148.69800000
Zn 151.21500000 213.31200000 153.92100000
Zn 151.21500000 181.53600000 146.08800000
Zn 151.21500000 181.53600000 151.30800000
Zn 151.21500000 187.14300000 140.86500000
Zn 151.21500000 187.14300000 146.08800000
Zn 151.21500000 187.14300000 151.30800000
Zn 151.21500000 187.14300000 156.53100000
Zn 151.21500000 187.14300000 161.75400000
Zn 151.21500000 192.75000000 135.64200000
Zn 151.21500000 192.75000000 140.86500000
Zn 151.21500000 192.75000000 146.08800000
Zn 151.21500000 192.75000000 151.30800000
Zn 151.21500000 192.75000000 156.53100000
Zn 151.21500000 192.75000000 161.75400000
Zn 151.21500000 198.36000000 135.64200000
Zn 151.21500000 198.36000000 140.86500000
Zn 151.21500000 198.36000000 146.08800000
Zn 151.21500000 198.36000000 151.30800000
Zn 151.21500000 203.96700000 135.64200000
Zn 151.21500000 203.96700000 140.86500000
Zn 151.21500000 198.36000000 156.53100000
Zn 151.21500000 198.36000000 161.75400000
Zn 151.21500000 203.96700000 146.08800000
Zn 151.21500000 203.96700000 151.30800000
Zn 151.21500000 198.36000000 166.97400000
Zn 151.21500000 203.96700000 156.53100000
Zn 151.21500000 203.96700000 161.75400000
Zn 151.21500000 209.57400000 140.86500000
Zn 151.21500000 209.57400000 146.08800000
Zn 151.21500000 209.57400000 151.30800000
Zn 151.21500000 209.57400000 156.53100000
Zn 151.21500000 209.57400000 161.75400000
Zn 151.21500000 215.18100000 146.08800000
Zn 151.21500000 215.18100000 151.30800000
Zn 152.83200000 182.47200000 143.47500000
Zn 152.83200000 182.47200000 148.69800000
Zn 152.83200000 182.47200000 153.92100000
Zn 152.83200000 188.07900000 138.25200000
Zn 152.83200000 188.07900000 143.47500000
Zn 152.83200000 188.07900000 148.69800000
Zn 152.83200000 193.68600000 138.25200000
Zn 152.83200000 188.07900000 153.92100000
Zn 152.83200000 188.07900000 159.14100000
Zn 152.83200000 193.68600000 143.47500000
Zn 152.83200000 193.68600000 148.69800000
Zn 152.83200000 193.68600000 153.92100000
Zn 152.83200000 193.68600000 159.14100000
Zn 152.83200000 193.68600000 164.36400000
Zn 152.83200000 199.29300000 133.03200000
Zn 152.83200000 199.29300000 138.25200000
Zn 152.83200000 199.29300000 143.47500000
Zn 152.83200000 199.29300000 148.69800000
Zn 152.83200000 199.29300000 153.92100000
Zn 152.83200000 199.29300000 159.14100000
Zn 152.83200000 204.90000000 138.25200000
Zn 152.83200000 199.29300000 164.36400000
Zn 152.83200000 204.90000000 143.47500000
Zn 152.83200000 204.90000000 148.69800000
Zn 152.83200000 204.90000000 153.92100000
Zn 152.83200000 204.90000000 159.14100000
Zn 152.83200000 204.90000000 164.36400000
Zn 152.83200000 210.50700000 138.25200000
Zn 152.83200000 210.50700000 143.47500000
Zn 152.83200000 210.50700000 148.69800000
Zn 152.83200000 210.50700000 153.92100000
Zn 152.83200000 210.50700000 159.14100000
Zn 152.83200000 184.34100000 140.86500000
Zn 152.83200000 184.34100000 146.08800000
Zn 152.83200000 184.34100000 151.30800000
Zn 152.83200000 184.34100000 156.53100000
Zn 152.83200000 189.94800000 135.64200000
Zn 152.83200000 189.94800000 140.86500000
Zn 152.83200000 189.94800000 146.08800000
Zn 152.83200000 189.94800000 151.30800000
Zn 152.83200000 189.94800000 156.53100000
Zn 152.83200000 189.94800000 161.75400000
Zn 152.83200000 195.55500000 135.64200000
Zn 152.83200000 195.55500000 140.86500000
Zn 152.83200000 195.55500000 146.08800000
Zn 152.83200000 195.55500000 151.30800000
Zn 152.83200000 201.16200000 135.64200000
Zn 152.83200000 195.55500000 156.53100000
Zn 152.83200000 201.16200000 140.86500000
Zn 152.83200000 201.16200000 146.08800000
Zn 152.83200000 195.55500000 161.75400000
Zn 152.83200000 195.55500000 166.97400000
Zn 152.83200000 201.16200000 151.30800000
Zn 152.83200000 201.16200000 156.53100000
Zn 152.83200000 206.76900000 135.64200000
Zn 152.83200000 201.16200000 161.75400000
Zn 152.83200000 201.16200000 166.97400000
Zn 152.83200000 206.76900000 140.86500000
Zn 152.83200000 206.76900000 146.08800000
Zn 152.83200000 206.76900000 151.30800000
Zn 152.83200000 206.76900000 156.53100000
Zn 152.83200000 206.76900000 161.75400000
Zn 152.83200000 212.37600000 140.86500000
Zn 152.83200000 212.37600000 146.08800000
Zn 152.83200000 212.37600000 151.30800000
Zn 152.83200000 212.37600000 156.53100000
Zn 154.45200000 185.27400000 143.47500000
Zn 154.45200000 185.27400000 148.69800000
Zn 154.45200000 185.27400000 153.92100000
Zn 154.45200000 185.27400000 159.14100000
Zn 154.45200000 190.88100000 138.25200000
Zn 154.45200000 190.88100000 143.47500000
Zn 154.45200000 190.88100000 148.69800000
Zn 154.45200000 190.88100000 153.92100000
Zn 154.45200000 190.88100000 159.14100000
Zn 154.45200000 190.88100000 164.36400000
Zn 154.45200000 196.49100000 138.25200000
Zn 154.45200000 196.49100000 143.47500000
Zn 154.45200000 196.49100000 148.69800000
Zn 154.45200000 196.49100000 153.92100000
Zn 154.45200000 202.09800000 138.25200000
Zn 154.45200000 196.49100000 159.14100000
Zn 154.45200000 196.49100000 164.36400000
Zn 154.45200000 202.09800000 143.47500000
Zn 154.45200000 202.09800000 148.69800000
Zn 154.45200000 202.09800000 153.92100000
Zn 154.45200000 207.70500000 138.25200000
Zn 154.45200000 202.09800000 159.14100000
Zn 154.45200000 202.09800000 164.36400000
Zn 154.45200000 207.70500000 143.47500000
Zn 154.45200000 207.70500000 148.69800000
Zn 154.45200000 207.70500000 153.92100000
Zn 154.45200000 207.70500000 159.14100000
Zn 154.45200000 213.31200000 143.47500000
Zn 154.45200000 213.31200000 148.69800000
Zn 154.45200000 213.31200000 153.92100000
Zn 154.45200000 181.53600000 151.30800000
Zn 154.45200000 187.14300000 140.86500000
Zn 154.45200000 187.14300000 146.08800000
Zn 154.45200000 187.14300000 151.30800000
Zn 154.45200000 187.14300000 156.53100000
Zn 154.45200000 192.75000000 135.64200000
Zn 154.45200000 192.75000000 140.86500000
Zn 154.45200000 187.14300000 161.75400000
Zn 154.45200000 192.75000000 146.08800000
Zn 154.45200000 192.75000000 151.30800000
Zn 154.45200000 192.75000000 156.53100000
Zn 154.45200000 198.36000000 135.64200000
Zn 154.45200000 198.36000000 140.86500000
Zn 154.45200000 192.75000000 161.75400000
Zn 154.45200000 198.36000000 146.08800000
Zn 154.45200000 198.36000000 151.30800000
Zn 154.45200000 198.36000000 156.53100000
Zn 154.45200000 198.36000000 161.75400000
Zn 154.45200000 198.36000000 166.97400000
Zn 154.45200000 203.96700000 135.64200000
Zn 154.45200000 203.96700000 140.86500000
Zn 154.45200000 203.96700000 146.08800000
Zn 154.45200000 203.96700000 151.30800000
Zn 154.45200000 203.96700000 156.53100000
Zn 154.45200000 209.57400000 140.86500000
Zn 154.45200000 203.96700000 161.75400000
Zn 154.45200000 209.57400000 146.08800000
Zn 154.45200000 209.57400000 151.30800000
Zn 154.45200000 209.57400000 156.53100000
Zn 154.45200000 209.57400000 161.75400000
Zn 156.06900000 182.47200000 148.69800000
Zn 156.06900000 182.47200000 153.92100000
Zn 156.06900000 188.07900000 138.25200000
Zn 156.06900000 188.07900000 143.47500000
Zn 156.06900000 188.07900000 148.69800000
Zn 156.06900000 188.07900000 153.92100000
Zn 156.06900000 193.68600000 138.25200000
Zn 156.06900000 188.07900000 159.14100000
Zn 156.06900000 193.68600000 143.47500000
Zn 156.06900000 193.68600000 148.69800000
Zn 156.06900000 193.68600000 153.92100000
Zn 156.06900000 193.68600000 159.14100000
Zn 156.06900000 193.68600000 164.36400000
Zn 156.06900000 199.29300000 138.25200000
Zn 156.06900000 199.29300000 143.47500000
Zn 156.06900000 199.29300000 148.69800000
Zn 156.06900000 199.29300000 153.92100000
Zn 156.06900000 204.90000000 138.25200000
Zn 156.06900000 199.29300000 159.14100000
Zn 156.06900000 199.29300000 164.36400000
Zn 156.06900000 204.90000000 143.47500000
Zn 156.06900000 204.90000000 148.69800000
Zn 156.06900000 204.90000000 153.92100000
Zn 156.06900000 204.90000000 159.14100000
Zn 156.06900000 204.90000000 164.36400000
Zn 156.06900000 210.50700000 143.47500000
Zn 156.06900000 210.50700000 148.69800000
Zn 156.06900000 210.50700000 153.92100000
Zn 156.06900000 210.50700000 159.14100000
Zn 156.06900000 184.34100000 146.08800000
Zn 156.06900000 184.34100000 151.30800000
Zn 156.06900000 184.34100000 156.53100000
Zn 156.06900000 189.94800000 135.64200000
Zn 156.06900000 189.94800000 140.86500000
Zn 156.06900000 189.94800000 146.08800000
Zn 156.06900000 189.94800000 151.30800000
Zn 156.06900000 189.94800000 156.53100000
Zn 156.06900000 195.55500000 135.64200000
Zn 156.06900000 195.55500000 140.86500000
Zn 156.06900000 189.94800000 161.75400000
Zn 156.06900000 195.55500000 146.08800000
Zn 156.06900000 195.55500000 151.30800000
Zn 156.06900000 195.55500000 156.53100000
Zn 156.06900000 201.16200000 135.64200000
Zn 156.06900000 201.16200000 140.86500000
Zn 156.06900000 195.55500000 161.75400000
Zn 156.06900000 201.16200000 146.08800000
Zn 156.06900000 201.16200000 151.30800000
Zn 156.06900000 201.16200000 156.53100000
Zn 156.06900000 201.16200000 161.75400000
Zn 156.06900000 206.76900000 140.86500000
Zn 156.06900000 206.76900000 146.08800000
Zn 156.06900000 206.76900000 151.30800000
Zn 156.06900000 206.76900000 156.53100000
Zn 156.06900000 206.76900000 161.75400000
Zn 156.06900000 212.37600000 146.08800000
Zn 156.06900000 212.37600000 151.30800000
Zn 156.06900000 212.37600000 156.53100000
Zn 157.68900000 185.27400000 143.47500000
Zn 157.68900000 185.27400000 148.69800000
Zn 157.68900000 185.27400000 153.92100000
Zn 157.68900000 185.27400000 159.14100000
Zn 157.68900000 190.88100000 138.25200000
Zn 157.68900000 190.88100000 143.47500000
Zn 157.68900000 190.88100000 148.69800000
Zn 157.68900000 190.88100000 153.92100000
Zn 157.68900000 190.88100000 159.14100000
Zn 157.68900000 196.49100000 138.25200000
Zn 157.68900000 196.49100000 143.47500000
Zn 157.68900000 196.49100000 148.69800000
Zn 157.68900000 196.49100000 153.92100000
Zn 157.68900000 202.09800000 138.25200000
Zn 157.68900000 196.49100000 159.14100000
Zn 157.68900000 196.49100000 164.36400000
Zn 157.68900000 202.09800000 143.47500000
Zn 157.68900000 202.09800000 148.69800000
Zn 157.68900000 202.09800000 153.92100000
Zn 157.68900000 207.70500000 138.25200000
Zn 157.68900000 202.09800000 159.14100000
Zn 157.68900000 202.09800000 164.36400000
Zn 157.68900000 207.70500000 143.47500000
Zn 157.68900000 207.70500000 148.69800000
Zn 157.68900000 207.70500000 153.92100000
Zn 157.68900000 207.70500000 159.14100000
Zn 157.68900000 213.31200000 148.69800000
Zn 157.68900000 213.31200000 153.92100000
Zn 157.68900000 187.14300000 140.86500000
Zn 157.68900000 187.14300000 146.08800000
Zn 157.68900000 187.14300000 151.30800000
Zn 157.68900000 187.14300000 156.53100000
Zn 157.68900000 192.75000000 135.64200000
Zn 157.68900000 192.75000000 140.86500000
Zn 157.68900000 192.75000000 146.08800000
Zn 157.68900000 192.75000000 151.30800000
Zn 157.68900000 192.75000000 156.53100000
Zn 157.68900000 198.36000000 135.64200000
Zn 157.68900000 198.36000000 140.86500000
Zn 157.68900000 192.75000000 161.75400000
Zn 157.68900000 198.36000000 146.08800000
Zn 157.68900000 198.36000000 151.30800000
Zn 157.68900000 198.36000000 156.53100000
Zn 157.68900000 198.36000000 161.75400000
Zn 157.68900000 203.96700000 135.64200000
Zn 157.68900000 203.96700000 140.86500000
Zn 157.68900000 203.96700000 146.08800000
Zn 157.68900000 203.96700000 151.30800000
Zn 157.68900000 203.96700000 156.53100000
Zn 157.68900000 209.57400000 140.86500000
Zn 157.68900000 203.96700000 161.75400000
Zn 157.68900000 209.57400000 146.08800000
Zn 157.68900000 209.57400000 151.30800000
Zn 157.68900000 209.57400000 156.53100000
Zn 159.30900000 188.07900000 143.47500000
Zn 159.30900000 188.07900000 148.69800000
Zn 159.30900000 188.07900000 153.92100000
Zn 159.30900000 188.07900000 159.14100000
Zn 159.30900000 193.68600000 138.25200000
Zn 159.30900000 193.68600000 143.47500000
Zn 159.30900000 193.68600000 148.69800000
Zn 159.30900000 193.68600000 153.92100000
Zn 159.30900000 193.68600000 159.14100000
Zn 159.30900000 199.29300000 138.25200000
Zn 159.30900000 199.29300000 143.47500000
Zn 159.30900000 199.29300000 148.69800000
Zn 159.30900000 199.29300000 153.92100000
Zn 159.30900000 199.29300000 159.14100000
Zn 159.30900000 199.29300000 164.36400000
Zn 159.30900000 204.90000000 138.25200000
Zn 159.30900000 204.90000000 143.47500000
Zn 159.30900000 204.90000000 148.69800000
Zn 159.30900000 204.90000000 153.92100000
Zn 159.30900000 204.90000000 159.14100000
Zn 159.30900000 210.50700000 143.47500000
Zn 159.30900000 210.50700000 148.69800000
Zn 159.30900000 210.50700000 153.92100000
Zn 159.30900000 184.34100000 146.08800000
Zn 159.30900000 184.34100000 151.30800000
Zn 159.30900000 189.94800000 140.86500000
Zn 159.30900000 189.94800000 146.08800000
Zn 159.30900000 189.94800000 151.30800000
Zn 159.30900000 189.94800000 156.53100000
Zn 159.30900000 189.94800000 161.75400000
Zn 159.30900000 195.55500000 135.64200000
Zn 159.30900000 195.55500000 140.86500000
Zn 159.30900000 195.55500000 146.08800000
Zn 159.30900000 195.55500000 151.30800000
Zn 159.30900000 195.55500000 156.53100000
Zn 159.30900000 195.55500000 161.75400000
Zn 159.30900000 201.16200000 135.64200000
Zn 159.30900000 201.16200000 140.86500000
Zn 159.30900000 201.16200000 146.08800000
Zn 159.30900000 201.16200000 151.30800000
Zn 159.30900000 201.16200000 156.53100000
Zn 159.30900000 201.16200000 161.75400000
Zn 159.30900000 206.76900000 140.86500000
Zn 159.30900000 206.76900000 146.08800000
Zn 159.30900000 206.76900000 151.30800000
Zn 159.30900000 206.76900000 156.53100000
Zn 159.30900000 206.76900000 161.75400000
Zn 159.30900000 212.37600000 146.08800000
Zn 159.30900000 212.37600000 151.30800000
Zn 160.92600000 185.27400000 148.69800000
Zn 160.92600000 185.27400000 153.92100000
Zn 160.92600000 190.88100000 138.25200000
Zn 160.92600000 190.88100000 143.47500000
Zn 160.92600000 190.88100000 148.69800000
Zn 160.92600000 190.88100000 153.92100000
Zn 160.92600000 190.88100000 159.14100000
Zn 160.92600000 196.49100000 138.25200000
Zn 160.92600000 196.49100000 143.47500000
Zn 160.92600000 196.49100000 148.69800000
Zn 160.92600000 196.49100000 153.92100000
Zn 160.92600000 196.49100000 159.14100000
Zn 160.92600000 202.09800000 138.25200000
Zn 160.92600000 202.09800000 143.47500000
Zn 160.92600000 202.09800000 148.69800000
Zn 160.92600000 202.09800000 153.92100000
Zn 160.92600000 202.09800000 159.14100000
Zn 160.92600000 207.70500000 143.47500000
Zn 160.92600000 207.70500000 148.69800000
Zn 160.92600000 207.70500000 153.92100000
Zn 160.92600000 207.70500000 159.14100000
Zn 160.92600000 187.14300000 146.08800000
Zn 160.92600000 187.14300000 151.30800000
Zn 160.92600000 187.14300000 156.53100000
Zn 160.92600000 192.75000000 140.86500000
Zn 160.92600000 192.75000000 146.08800000
Zn 160.92600000 192.75000000 151.30800000
Zn 160.92600000 192.75000000 156.53100000
Zn 160.92600000 192.75000000 161.75400000
Zn 160.92600000 198.36000000 140.86500000
Zn 160.92600000 198.36000000 146.08800000
Zn 160.92600000 198.36000000 151.30800000
Zn 160.92600000 198.36000000 156.53100000
Zn 160.92600000 198.36000000 161.75400000
Zn 160.92600000 203.96700000 140.86500000
Zn 160.92600000 203.96700000 146.08800000
Zn 160.92600000 203.96700000 151.30800000
Zn 160.92600000 203.96700000 156.53100000
Zn 160.92600000 203.96700000 161.75400000
Zn 160.92600000 209.57400000 146.08800000
Zn 160.92600000 209.57400000 151.30800000
Zn 160.92600000 209.57400000 156.53100000
Zn 162.54600000 188.07900000 143.47500000
Zn 162.54600000 188.07900000 148.69800000
Zn 162.54600000 188.07900000 153.92100000
Zn 162.54600000 193.68600000 143.47500000
Zn 162.54600000 193.68600000 148.69800000
Zn 162.54600000 193.68600000 153.92100000
Zn 162.54600000 193.68600000 159.14100000
Zn 162.54600000 199.29300000 138.25200000
Zn 162.54600000 199.29300000 143.47500000
Zn 162.54600000 199.29300000 148.69800000
Zn 162.54600000 199.29300000 153.92100000
Zn 162.54600000 199.29300000 159.14100000
Zn 162.54600000 204.90000000 143.47500000
Zn 162.54600000 204.90000000 148.69800000
Zn 162.54600000 204.90000000 153.92100000
Zn 162.54600000 204.90000000 159.14100000
Zn 162.54600000 189.94800000 140.86500000
Zn 162.54600000 189.94800000 146.08800000
Zn 162.54600000 189.94800000 151.30800000
Zn 162.54600000 189.94800000 156.53100000
Zn 162.54600000 195.55500000 140.86500000
Zn 162.54600000 195.55500000 146.08800000
Zn 162.54600000 195.55500000 151.30800000
Zn 162.54600000 195.55500000 156.53100000
Zn 162.54600000 195.55500000 161.75400000
Zn 162.54600000 201.16200000 140.86500000
Zn 162.54600000 201.16200000 146.08800000
Zn 162.54600000 201.16200000 151.30800000
Zn 162.54600000 201.16200000 156.53100000
Zn 162.54600000 201.16200000 161.75400000
Zn 162.54600000 206.76900000 146.08800000
Zn 162.54600000 206.76900000 151.30800000
Zn 162.54600000 206.76900000 156.53100000
Zn 164.16300000 190.88100000 143.47500000
Zn 164.16300000 190.88100000 148.69800000
Zn 164.16300000 190.88100000 153.92100000
Zn 164.16300000 196.49100000 143.47500000
Zn 164.16300000 196.49100000 148.69800000
Zn 164.16300000 196.49100000 153.92100000
Zn 164.16300000 196.49100000 159.14100000
Zn 164.16300000 202.09800000 143.47500000
Zn 164.16300000 202.09800000 148.69800000
Zn 164.16300000 202.09800000 153.92100000
Zn 164.16300000 202.09800000 159.14100000
Zn 164.16300000 207.70500000 148.69800000
Zn 164.16300000 207.70500000 153.92100000
Zn 164.16300000 192.75000000 146.08800000
Zn 164.16300000 192.75000000 151.30800000
Zn 164.16300000 192.75000000 156.53100000
Zn 164.16300000 198.36000000 140.86500000
Zn 164.16300000 198.36000000 146.08800000
Zn 164.16300000 198.36000000 151.30800000
Zn 164.16300000 198.36000000 156.53100000
Zn 164.16300000 203.96700000 146.08800000
Zn 164.16300000 203.96700000 151.30800000
Zn 164.16300000 203.96700000 156.53100000
Zn 165.78300000 193.68600000 148.69800000
Zn 165.78300000 193.68600000 153.92100000
Zn 165.78300000 199.29300000 143.47500000
Zn 165.78300000 199.29300000 148.69800000
Zn 165.78300000 199.29300000 153.92100000
Zn 165.78300000 204.90000000 148.69800000
Zn 165.78300000 195.55500000 146.08800000
Zn 165.78300000 195.55500000 151.30800000
Zn 165.78300000 195.55500000 156.53100000
Zn 165.78300000 201.16200000 146.08800000
Zn 165.78300000 201.16200000 151.30800000
Zn 165.78300000 201.16200000 156.53100000
Zn 167.40000000 196.49100000 148.69800000
Zn 167.40000000 198.36000000 151.30800000
Cr 86.44200000 143.38500000 147.08700000
Cr 86.44200000 143.38500000 150.00000000
Cr 86.44200000 143.38500000 152.91300000
Cr 86.44200000 147.79500000 144.17100000
Cr 86.44200000 147.79500000 147.08700000
Cr 86.44200000 147.79500000 150.00000000
Cr 86.44200000 147.79500000 152.91300000
Cr 86.44200000 147.79500000 155.82900000
Cr 86.44200000 152.20500000 144.17100000
Cr 86.44200000 152.20500000 147.08700000
Cr 86.44200000 152.20500000 150.00000000
Cr 86.44200000 152.20500000 152.91300000
Cr 86.44200000 152.20500000 155.82900000
Cr 86.44200000 156.61500000 147.08700000
Cr 86.44200000 156.61500000 150.00000000
Cr 86.44200000 156.61500000 152.91300000
Cr 88.64700000 141.18300000 145.62900000
Cr 88.64700000 141.18300000 148.54200000
Cr 88.64700000 141.18300000 151.45800000
Cr 88.64700000 141.18300000 154.37100000
Cr 88.64700000 145.59000000 142.71600000
Cr 88.64700000 145.59000000 145.62900000
Cr 88.64700000 145.59000000 148.54200000
Cr 88.64700000 145.59000000 151.45800000
Cr 88.64700000 145.59000000 154.37100000
Cr 88.64700000 145.59000000 157.28400000
Cr 88.64700000 150.00000000 139.80000000
Cr 88.64700000 150.00000000 142.71600000
Cr 88.64700000 150.00000000 145.62900000
Cr 88.64700000 150.00000000 148.54200000
Cr 88.64700000 150.00000000 151.45800000
Cr 88.64700000 150.00000000 154.37100000
Cr 88.64700000 150.00000000 157.28400000
Cr 88.64700000 150.00000000 160.20000000
Cr 88.64700000 154.41000000 142.71600000
Cr 88.64700000 154.41000000 145.62900000
Cr 88.64700000 154.41000000 148.54200000
Cr 88.64700000 154.41000000 151.45800000
Cr 88.64700000 154.41000000 154.37100000
Cr 88.64700000 154.41000000 157.28400000
Cr 88.64700000 158.81700000 145.62900000
Cr 88.64700000 158.81700000 148.54200000
Cr 88.64700000 158.81700000 151.45800000
Cr 88.64700000 158.81700000 154.37100000
Cr 90.85200000 138.97800000 144.17100000
Cr 90.85200000 138.97800000 147.08700000
Cr 90.85200000 138.97800000 150.00000000
Cr 90.85200000 138.97800000 152.91300000
Cr 90.85200000 138.97800000 155.82900000
Cr 90.85200000 143.38500000 141.25800000
Cr 90.85200000 143.38500000 144.17100000
Cr 90.85200000 143.38500000 147.08700000
Cr 90.85200000 143.38500000 150.00000000
Cr 90.85200000 143.38500000 152.91300000
Cr 90.85200000 143.38500000 155.82900000
Cr 90.85200000 143.38500000 158.74200000
Cr 90.85200000 147.79500000 138.34500000
Cr 90.85200000 147.79500000 141.25800000
Cr 90.85200000 147.79500000 144.17100000
Cr 90.85200000 147.79500000 147.08700000
Cr 90.85200000 147.79500000 150.00000000
Cr 90.85200000 147.79500000 152.91300000
Cr 90.85200000 147.79500000 155.82900000
Cr 90.85200000 147.79500000 158.74200000
Cr 90.85200000 147.79500000 161.65500000
Cr 90.85200000 152.20500000 138.34500000
Cr 90.85200000 152.20500000 141.25800000
Cr 90.85200000 152.20500000 144.17100000
Cr 90.85200000 152.20500000 147.08700000
Cr 90.85200000 152.20500000 150.00000000
Cr 90.85200000 152.20500000 152.91300000
Cr 90.85200000 152.20500000 155.82900000
Cr 90.85200000 152.20500000 158.74200000
Cr 90.85200000 152.20500000 161.65500000
Cr 90.85200000 156.61500000 141.25800000
Cr 90.85200000 156.61500000 144.17100000
Cr 90.85200000 156.61500000 147.08700000
Cr 90.85200000 156.61500000 150.00000000
Cr 90.85200000 156.61500000 152.91300000
Cr 90.85200000 156.61500000 155.82900000
Cr 90.85200000 156.61500000 158.74200000
Cr 90.85200000 161.02200000 144.17100000
Cr 90.85200000 161.02200000 147.08700000
Cr 90.85200000 161.02200000 150.00000000
Cr 90.85200000 161.02200000 152.91300000
Cr 90.85200000 161.02200000 155.82900000
Cr 93.05700000 136.77300000 145.62900000
Cr 93.05700000 136.77300000 148.54200000
Cr 93.05700000 136.77300000 151.45800000
Cr 93.05700000 136.77300000 154.37100000
Cr 93.05700000 141.18300000 139.80000000
Cr 93.05700000 141.18300000 142.71600000
Cr 93.05700000 141.18300000 145.62900000
Cr 93.05700000 141.18300000 148.54200000
Cr 93.05700000 141.18300000 151.45800000
Cr 93.05700000 141.18300000 154.37100000
Cr 93.05700000 141.18300000 157.28400000
Cr 93.05700000 141.18300000 160.20000000
Cr 93.05700000 145.59000000 136.88700000
Cr 93.05700000 145.59000000 139.80000000
Cr 93.05700000 145.59000000 142.71600000
Cr 93.05700000 145.59000000 145.62900000
Cr 93.05700000 145.59000000 148.54200000
Cr 93.05700000 145.59000000 151.45800000
Cr 93.05700000 145.59000000 154.37100000
Cr 93.05700000 145.59000000 157.28400000
Cr 93.05700000 145.59000000 160.20000000
Cr 93.05700000 145.59000000 163.11300000
Cr 93.05700000 150.00000000 136.88700000
Cr 93.05700000 150.00000000 139.80000000
Cr 93.05700000 150.00000000 142.71600000
Cr 93.05700000 150.00000000 145.62900000
Cr 93.05700000 150.00000000 148.54200000
Cr 93.05700000 150.00000000 151.45800000
Cr 93.05700000 150.00000000 154.37100000
Cr 93.05700000 150.00000000 157.28400000
Cr 93.05700000 150.00000000 160.20000000
Cr 93.05700000 150.00000000 163.11300000
Cr 93.05700000 154.41000000 136.88700000
Cr 93.05700000 154.41000000 139.80000000
Cr 93.05700000 154.41000000 142.71600000
Cr 93.05700000 154.41000000 145.62900000
Cr 93.05700000 154.41000000 148.54200000
Cr 93.05700000 154.41000000 151.45800000
Cr 93.05700000 154.41000000 154.37100000
Cr 93.05700000 154.41000000 157.28400000
Cr 93.05700000 154.41000000 160.20000000
Cr 93.05700000 154.41000000 163.11300000
Cr 93.05700000 158.81700000 139.80000000
Cr 93.05700000 158.81700000 142.71600000
Cr 93.05700000 158.81700000 145.62900000
Cr 93.05700000 158.81700000 148.54200000
Cr 93.05700000 158.81700000 151.45800000
Cr 93.05700000 158.81700000 154.37100000
Cr 93.05700000 158.81700000 157.28400000
Cr 93.05700000 158.81700000 160.20000000
Cr 93.05700000 163.22700000 145.62900000
Cr 93.05700000 163.22700000 148.54200000
Cr 93.05700000 163.22700000 151.45800000
Cr 93.05700000 163.22700000 154.37100000
Cr 95.26200000 138.97800000 141.25800000
Cr 95.26200000 134.56800000 147.08700000
Cr 95.26200000 134.56800000 150.00000000
Cr 95.26200000 134.56800000 152.91300000
Cr 95.26200000 138.97800000 144.17100000
Cr 95.26200000 138.97800000 147.08700000
Cr 95.26200000 138.97800000 150.00000000
Cr 95.26200000 138.97800000 152.91300000
Cr 95.26200000 138.97800000 155.82900000
Cr 95.26200000 143.38500000 138.34500000
Cr 95.26200000 143.38500000 141.25800000
Cr 95.26200000 147.79500000 135.42900000
Cr 95.26200000 147.79500000 138.34500000
Cr 95.26200000 147.79500000 141.25800000
Cr 95.26200000 152.20500000 135.42900000
Cr 95.26200000 152.20500000 138.34500000
Cr 95.26200000 152.20500000 141.25800000
Cr 95.26200000 156.61500000 138.34500000
Cr 95.26200000 156.61500000 141.25800000
Cr 95.26200000 138.97800000 158.74200000
Cr 95.26200000 143.38500000 144.17100000
Cr 95.26200000 143.38500000 147.08700000
Cr 95.26200000 143.38500000 150.00000000
Cr 95.26200000 143.38500000 152.91300000
Cr 95.26200000 143.38500000 155.82900000
Cr 95.26200000 147.79500000 144.17100000
Cr 95.26200000 147.79500000 147.08700000
Cr 95.26200000 147.79500000 150.00000000
Cr 95.26200000 147.79500000 152.91300000
Cr 95.26200000 147.79500000 155.82900000
Cr 95.26200000 152.20500000 144.17100000
Cr 95.26200000 152.20500000 147.08700000
Cr 95.26200000 152.20500000 150.00000000
Cr 95.26200000 152.20500000 152.91300000
Cr 95.26200000 152.20500000 155.82900000
Cr 95.26200000 156.61500000 144.17100000
Cr 95.26200000 156.61500000 147.08700000
Cr 95.26200000 156.61500000 150.00000000
Cr 95.26200000 156.61500000 152.91300000
Cr 95.26200000 156.61500000 155.82900000
Cr 95.26200000 161.02200000 141.25800000
Cr 95.26200000 143.38500000 158.74200000
Cr 95.26200000 143.38500000 161.65500000
Cr 95.26200000 147.79500000 158.74200000
Cr 95.26200000 147.79500000 161.65500000
Cr 95.26200000 147.79500000 164.56800000
Cr 95.26200000 152.20500000 158.74200000
Cr 95.26200000 152.20500000 161.65500000
Cr 95.26200000 152.20500000 164.56800000
Cr 95.26200000 156.61500000 158.74200000
Cr 95.26200000 156.61500000 161.65500000
Cr 95.26200000 161.02200000 144.17100000
Cr 95.26200000 161.02200000 147.08700000
Cr 95.26200000 161.02200000 150.00000000
Cr 95.26200000 161.02200000 152.91300000
Cr 95.26200000 161.02200000 155.82900000
Cr 95.26200000 165.43200000 147.08700000
Cr 95.26200000 165.43200000 150.00000000
Cr 95.26200000 165.43200000 152.91300000
Cr 95.26200000 161.02200000 158.74200000
Cr 97.46700000 136.77300000 142.71600000
Cr 97.46700000 141.18300000 136.88700000
Cr 97.46700000 141.18300000 139.80000000
Cr 97.46700000 141.18300000 142.71600000
Cr 97.46700000 136.77300000 145.62900000
Cr 97.46700000 136.77300000 148.54200000
Cr 97.46700000 136.77300000 151.45800000
Cr 97.46700000 136.77300000 154.37100000
Cr 97.46700000 141.18300000 145.62900000
Cr 97.46700000 141.18300000 148.54200000
Cr 97.46700000 141.18300000 151.45800000
Cr 97.46700000 141.18300000 154.37100000
Cr 97.46700000 145.59000000 133.97400000
Cr 97.46700000 145.59000000 136.88700000
Cr 97.46700000 145.59000000 139.80000000
Cr 97.46700000 145.59000000 142.71600000
Cr 97.46700000 150.00000000 133.97400000
Cr 97.46700000 150.00000000 136.88700000
Cr 97.46700000 150.00000000 139.80000000
Cr 97.46700000 150.00000000 142.71600000
Cr 97.46700000 154.41000000 133.97400000
Cr 97.46700000 154.41000000 136.88700000
Cr 97.46700000 154.41000000 139.80000000
Cr 97.46700000 154.41000000 142.71600000
Cr 97.46700000 136.77300000 157.28400000
Cr 97.46700000 141.18300000 157.28400000
Cr 97.46700000 141.18300000 160.20000000
Cr 97.46700000 141.18300000 163.11300000
Cr 97.46700000 145.59000000 145.62900000
Cr 97.46700000 145.59000000 148.54200000
Cr 97.46700000 145.59000000 151.45800000
Cr 97.46700000 145.59000000 154.37100000
Cr 97.46700000 150.00000000 145.62900000
Cr 97.46700000 150.00000000 148.54200000
Cr 97.46700000 150.00000000 151.45800000
Cr 97.46700000 150.00000000 154.37100000
Cr 97.46700000 154.41000000 145.62900000
Cr 97.46700000 154.41000000 148.54200000
Cr 97.46700000 154.41000000 151.45800000
Cr 97.46700000 154.41000000 154.37100000
Cr 97.46700000 158.81700000 136.88700000
Cr 97.46700000 158.81700000 139.80000000
Cr 97.46700000 158.81700000 142.71600000
Cr 97.46700000 163.22700000 142.71600000
Cr 97.46700000 145.59000000 157.28400000
Cr 97.46700000 145.59000000 160.20000000
Cr 97.46700000 145.59000000 163.11300000
Cr 97.46700000 145.59000000 166.02600000
Cr 97.46700000 150.00000000 157.28400000
Cr 97.46700000 150.00000000 160.20000000
Cr 97.46700000 150.00000000 163.11300000
Cr 97.46700000 150.00000000 166.02600000
Cr 97.46700000 154.41000000 157.28400000
Cr 97.46700000 154.41000000 160.20000000
Cr 97.46700000 154.41000000 163.11300000
Cr 97.46700000 154.41000000 166.02600000
Cr 97.46700000 158.81700000 145.62900000
Cr 97.46700000 158.81700000 148.54200000
Cr 97.46700000 158.81700000 151.45800000
Cr 97.46700000 158.81700000 154.37100000
Cr 97.46700000 163.22700000 145.62900000
Cr 97.46700000 163.22700000 148.54200000
Cr 97.46700000 163.22700000 151.45800000
Cr 97.46700000 163.22700000 154.37100000
Cr 97.46700000 158.81700000 157.28400000
Cr 97.46700000 158.81700000 160.20000000
Cr 97.46700000 158.81700000 163.11300000
Cr 97.46700000 163.22700000 157.28400000
Cr 99.66900000 138.97800000 138.34500000
Cr 99.66900000 134.56800000 144.17100000
Cr 99.66900000 138.97800000 141.25800000
Cr 99.66900000 138.97800000 144.17100000
Cr 99.66900000 143.38500000 135.42900000
Cr 99.66900000 143.38500000 138.34500000
Cr 99.66900000 134.56800000 147.08700000
Cr 99.66900000 134.56800000 150.00000000
Cr 99.66900000 134.56800000 152.91300000
Cr 99.66900000 138.97800000 147.08700000
Cr 99.66900000 138.97800000 150.00000000
Cr 99.66900000 138.97800000 152.91300000
Cr 99.66900000 143.38500000 141.25800000
Cr 99.66900000 143.38500000 144.17100000
Cr 99.66900000 147.79500000 135.42900000
Cr 99.66900000 147.79500000 138.34500000
Cr 99.66900000 152.20500000 135.42900000
Cr 99.66900000 152.20500000 138.34500000
Cr 99.66900000 134.56800000 155.82900000
Cr 99.66900000 138.97800000 155.82900000
Cr 99.66900000 138.97800000 158.74200000
Cr 99.66900000 143.38500000 147.08700000
Cr 99.66900000 143.38500000 150.00000000
Cr 99.66900000 143.38500000 152.91300000
Cr 99.66900000 147.79500000 141.25800000
Cr 99.66900000 147.79500000 144.17100000
Cr 99.66900000 152.20500000 141.25800000
Cr 99.66900000 152.20500000 144.17100000
Cr 99.66900000 156.61500000 135.42900000
Cr 99.66900000 156.61500000 138.34500000
Cr 99.66900000 138.97800000 161.65500000
Cr 99.66900000 143.38500000 155.82900000
Cr 99.66900000 143.38500000 158.74200000
Cr 99.66900000 147.79500000 147.08700000
Cr 99.66900000 147.79500000 150.00000000
Cr 99.66900000 147.79500000 152.91300000
Cr 99.66900000 152.20500000 147.08700000
Cr 99.66900000 152.20500000 150.00000000
Cr 99.66900000 152.20500000 152.91300000
Cr 99.66900000 156.61500000 141.25800000
Cr 99.66900000 156.61500000 144.17100000
Cr 99.66900000 161.02200000 138.34500000
Cr 99.66900000 143.38500000 161.65500000
Cr 99.66900000 143.38500000 164.56800000
Cr 99.66900000 147.79500000 155.82900000
Cr 99.66900000 147.79500000 158.74200000
Cr 99.66900000 152.20500000 155.82900000
Cr 99.66900000 152.20500000 158.74200000
Cr 99.66900000 156.61500000 147.08700000
Cr 99.66900000 156.61500000 150.00000000
Cr 99.66900000 156.61500000 152.91300000
Cr 99.66900000 161.02200000 141.25800000
Cr 99.66900000 161.02200000 144.17100000
Cr 99.66900000 165.43200000 144.17100000
Cr 99.66900000 147.79500000 161.65500000
Cr 99.66900000 147.79500000 164.56800000
Cr 99.66900000 152.20500000 161.65500000
Cr 99.66900000 152.20500000 164.56800000
Cr 99.66900000 156.61500000 155.82900000
Cr 99.66900000 156.61500000 158.74200000
Cr 99.66900000 161.02200000 147.08700000
Cr 99.66900000 161.02200000 150.00000000
Cr 99.66900000 161.02200000 152.91300000
Cr 99.66900000 165.43200000 147.08700000
Cr 99.66900000 165.43200000 150.00000000
Cr 99.66900000 165.43200000 152.91300000
Cr 99.66900000 156.61500000 161.65500000
Cr 99.66900000 156.61500000 164.56800000
Cr 99.66900000 161.02200000 155.82900000
Cr 99.66900000 161.02200000 158.74200000
Cr 99.66900000 165.43200000 155.82900000
Cr 99.66900000 161.02200000 161.65500000
Cr 101.87400000 136.77300000 139.80000000
Cr 101.87400000 141.18300000 136.88700000
Cr 101.87400000 136.77300000 142.71600000
Cr 101.87400000 145.59000000 133.97400000
Cr 101.87400000 141.18300000 139.80000000
Cr 101.87400000 136.77300000 145.62900000
Cr 101.87400000 145.59000000 136.88700000
Cr 101.87400000 141.18300000 142.71600000
Cr 101.87400000 150.00000000 133.97400000
Cr 101.87400000 136.77300000 148.54200000
Cr 101.87400000 145.59000000 139.80000000
Cr 101.87400000 141.18300000 145.62900000
Cr 101.87400000 150.00000000 136.88700000
Cr 101.87400000 136.77300000 151.45800000
Cr 101.87400000 145.59000000 142.71600000
Cr 101.87400000 154.41000000 133.97400000
Cr 101.87400000 141.18300000 148.54200000
Cr 101.87400000 150.00000000 139.80000000
Cr 101.87400000 136.77300000 154.37100000
Cr 101.87400000 145.59000000 145.62900000
Cr 101.87400000 154.41000000 136.88700000
Cr 101.87400000 141.18300000 151.45800000
Cr 101.87400000 150.00000000 142.71600000
Cr 101.87400000 136.77300000 157.28400000
Cr 101.87400000 145.59000000 148.54200000
Cr 101.87400000 154.41000000 139.80000000
Cr 101.87400000 141.18300000 154.37100000
Cr 101.87400000 150.00000000 145.62900000
Cr 101.87400000 158.81700000 136.88700000
Cr 101.87400000 136.77300000 160.20000000
Cr 101.87400000 145.59000000 151.45800000
Cr 101.87400000 154.41000000 142.71600000
Cr 101.87400000 141.18300000 157.28400000
Cr 101.87400000 150.00000000 148.54200000
Cr 101.87400000 158.81700000 139.80000000
Cr 101.87400000 145.59000000 154.37100000
Cr 101.87400000 154.41000000 145.62900000
Cr 101.87400000 141.18300000 160.20000000
Cr 101.87400000 150.00000000 151.45800000
Cr 101.87400000 158.81700000 142.71600000
Cr 101.87400000 145.59000000 157.28400000
Cr 101.87400000 154.41000000 148.54200000
Cr 101.87400000 163.22700000 139.80000000
Cr 101.87400000 141.18300000 163.11300000
Cr 101.87400000 150.00000000 154.37100000
Cr 101.87400000 158.81700000 145.62900000
Cr 101.87400000 145.59000000 160.20000000
Cr 101.87400000 154.41000000 151.45800000
Cr 101.87400000 163.22700000 142.71600000
Cr 101.87400000 150.00000000 157.28400000
Cr 101.87400000 158.81700000 148.54200000
Cr 101.87400000 145.59000000 163.11300000
Cr 101.87400000 154.41000000 154.37100000
Cr 101.87400000 163.22700000 145.62900000
Cr 101.87400000 150.00000000 160.20000000
Cr 101.87400000 158.81700000 151.45800000
Cr 101.87400000 145.59000000 166.02600000
Cr 101.87400000 154.41000000 157.28400000
Cr 101.87400000 163.22700000 148.54200000
Cr 101.87400000 150.00000000 163.11300000
Cr 101.87400000 158.81700000 154.37100000
Cr 101.87400000 154.41000000 160.20000000
Cr 101.87400000 163.22700000 151.45800000
Cr 101.87400000 150.00000000 166.02600000
Cr 101.87400000 158.81700000 157.28400000
Cr 101.87400000 154.41000000 163.11300000
Cr 101.87400000 163.22700000 154.37100000
Cr 101.87400000 158.81700000 160.20000000
Cr 101.87400000 154.41000000 166.02600000
Cr 101.87400000 163.22700000 157.28400000
Cr 101.87400000 158.81700000 163.11300000
Cr 101.87400000 163.22700000 160.20000000
Cr 104.07900000 138.97800000 138.34500000
Cr 104.07900000 134.56800000 144.17100000
Cr 104.07900000 138.97800000 141.25800000
Cr 104.07900000 138.97800000 144.17100000
Cr 104.07900000 143.38500000 135.42900000
Cr 104.07900000 143.38500000 138.34500000
Cr 104.07900000 134.56800000 147.08700000
Cr 104.07900000 134.56800000 150.00000000
Cr 104.07900000 134.56800000 152.91300000
Cr 104.07900000 138.97800000 147.08700000
Cr 104.07900000 138.97800000 150.00000000
Cr 104.07900000 138.97800000 152.91300000
Cr 104.07900000 143.38500000 141.25800000
Cr 104.07900000 143.38500000 144.17100000
Cr 104.07900000 147.79500000 135.42900000
Cr 104.07900000 147.79500000 138.34500000
Cr 104.07900000 152.20500000 135.42900000
Cr 104.07900000 152.20500000 138.34500000
Cr 104.07900000 134.56800000 155.82900000
Cr 104.07900000 138.97800000 155.82900000
Cr 104.07900000 138.97800000 158.74200000
Cr 104.07900000 143.38500000 147.08700000
Cr 104.07900000 143.38500000 150.00000000
Cr 104.07900000 143.38500000 152.91300000
Cr 104.07900000 147.79500000 141.25800000
Cr 104.07900000 147.79500000 144.17100000
Cr 104.07900000 152.20500000 141.25800000
Cr 104.07900000 152.20500000 144.17100000
Cr 104.07900000 156.61500000 135.42900000
Cr 104.07900000 156.61500000 138.34500000
Cr 104.07900000 138.97800000 161.65500000
Cr 104.07900000 143.38500000 155.82900000
Cr 104.07900000 143.38500000 158.74200000
Cr 104.07900000 147.79500000 147.08700000
Cr 104.07900000 147.79500000 150.00000000
Cr 104.07900000 147.79500000 152.91300000
Cr 104.07900000 152.20500000 147.08700000
Cr 104.07900000 152.20500000 150.00000000
Cr 104.07900000 152.20500000 152.91300000
Cr 104.07900000 156.61500000 141.25800000
Cr 104.07900000 156.61500000 144.17100000
Cr 104.07900000 161.02200000 138.34500000
Cr 104.07900000 143.38500000 161.65500000
Cr 104.07900000 143.38500000 164.56800000
Cr 104.07900000 147.79500000 155.82900000
Cr 104.07900000 147.79500000 158.74200000
Cr 104.07900000 152.20500000 155.82900000
Cr 104.07900000 152.20500000 158.74200000
Cr 104.07900000 156.61500000 147.08700000
Cr 104.07900000 156.61500000 150.00000000
Cr 104.07900000 156.61500000 152.91300000
Cr 104.07900000 161.02200000 141.25800000
Cr 104.07900000 161.02200000 144.17100000
Cr 104.07900000 165.43200000 144.17100000
Cr 104.07900000 147.79500000 161.65500000
Cr 104.07900000 147.79500000 164.56800000
Cr 104.07900000 152.20500000 161.65500000
Cr 104.07900000 152.20500000 164.56800000
Cr 104.07900000 156.61500000 155.82900000
Cr 104.07900000 156.61500000 158.74200000
Cr 104.07900000 161.02200000 147.08700000
Cr 104.07900000 161.02200000 150.00000000
Cr 104.07900000 161.02200000 152.91300000
Cr 104.07900000 165.43200000 147.08700000
Cr 104.07900000 165.43200000 150.00000000
Cr 104.07900000 165.43200000 152.91300000
Cr 104.07900000 156.61500000 161.65500000
Cr 104.07900000 156.61500000 164.56800000
Cr 104.07900000 161.02200000 155.82900000
Cr 104.07900000 161.02200000 158.74200000
Cr 104.07900000 165.43200000 155.82900000
Cr 104.07900000 161.02200000 161.65500000
Cr 106.28400000 136.77300000 142.71600000
Cr 106.28400000 141.18300000 136.88700000
Cr 106.28400000 141.18300000 139.80000000
Cr 106.28400000 141.18300000 142.71600000
Cr 106.28400000 136.77300000 145.62900000
Cr 106.28400000 136.77300000 148.54200000
Cr 106.28400000 136.77300000 151.45800000
Cr 106.28400000 136.77300000 154.37100000
Cr 106.28400000 141.18300000 145.62900000
Cr 106.28400000 141.18300000 148.54200000
Cr 106.28400000 141.18300000 151.45800000
Cr 106.28400000 141.18300000 154.37100000
Cr 106.28400000 145.59000000 133.97400000
Cr 106.28400000 145.59000000 136.88700000
Cr 106.28400000 145.59000000 139.80000000
Cr 106.28400000 145.59000000 142.71600000
Cr 106.28400000 150.00000000 133.97400000
Cr 106.28400000 150.00000000 136.88700000
Cr 106.28400000 150.00000000 139.80000000
Cr 106.28400000 150.00000000 142.71600000
Cr 106.28400000 154.41000000 136.88700000
Cr 106.28400000 154.41000000 139.80000000
Cr 106.28400000 154.41000000 142.71600000
Cr 106.28400000 136.77300000 157.28400000
Cr 106.28400000 141.18300000 157.28400000
Cr 106.28400000 141.18300000 160.20000000
Cr 106.28400000 141.18300000 163.11300000
Cr 106.28400000 145.59000000 145.62900000
Cr 106.28400000 145.59000000 148.54200000
Cr 106.28400000 145.59000000 151.45800000
Cr 106.28400000 145.59000000 154.37100000
Cr 106.28400000 150.00000000 145.62900000
Cr 106.28400000 150.00000000 148.54200000
Cr 106.28400000 150.00000000 151.45800000
Cr 106.28400000 150.00000000 154.37100000
Cr 106.28400000 154.41000000 145.62900000
Cr 106.28400000 154.41000000 148.54200000
Cr 106.28400000 154.41000000 151.45800000
Cr 106.28400000 154.41000000 154.37100000
Cr 106.28400000 158.81700000 136.88700000
Cr 106.28400000 158.81700000 139.80000000
Cr 106.28400000 158.81700000 142.71600000
Cr 106.28400000 163.22700000 142.71600000
Cr 106.28400000 145.59000000 157.28400000
Cr 106.28400000 145.59000000 160.20000000
Cr 106.28400000 145.59000000 163.11300000
Cr 106.28400000 145.59000000 166.02600000
Cr 106.28400000 150.00000000 157.28400000
Cr 106.28400000 150.00000000 160.20000000
Cr 106.28400000 150.00000000 163.11300000
Cr 106.28400000 150.00000000 166.02600000
Cr 106.28400000 154.41000000 157.28400000
Cr 106.28400000 154.41000000 160.20000000
Cr 106.28400000 154.41000000 163.11300000
Cr 106.28400000 158.81700000 145.62900000
Cr 106.28400000 158.81700000 148.54200000
Cr 106.28400000 158.81700000 151.45800000
Cr 106.28400000 158.81700000 154.37100000
Cr 106.28400000 163.22700000 145.62900000
Cr 106.28400000 163.22700000 148.54200000
Cr 106.28400000 163.22700000 151.45800000
Cr 106.28400000 163.22700000 154.37100000
Cr 106.28400000 158.81700000 157.28400000
Cr 106.28400000 158.81700000 160.20000000
Cr 106.28400000 158.81700000 163.11300000
Cr 106.28400000 163.22700000 157.28400000
Cr 108.48900000 138.97800000 141.25800000
Cr 108.48900000 134.56800000 147.08700000
Cr 108.48900000 134.56800000 150.00000000
Cr 108.48900000 134.56800000 152.91300000
Cr 108.48900000 138.97800000 144.17100000
Cr 108.48900000 138.97800000 147.08700000
Cr 108.48900000 138.97800000 150.00000000
Cr 108.48900000 138.97800000 152.91300000
Cr 108.48900000 138.97800000 155.82900000
Cr 108.48900000 143.38500000 138.34500000
Cr 108.48900000 143.38500000 141.25800000
Cr 108.48900000 147.79500000 135.42900000
Cr 108.48900000 147.79500000 138.34500000
Cr 108.48900000 147.79500000 141.25800000
Cr 108.48900000 152.20500000 135.42900000
Cr 108.48900000 152.20500000 138.34500000
Cr 108.48900000 152.20500000 141.25800000
Cr 108.48900000 156.61500000 138.34500000
Cr 108.48900000 156.61500000 141.25800000
Cr 108.48900000 138.97800000 158.74200000
Cr 108.48900000 143.38500000 144.17100000
Cr 108.48900000 143.38500000 147.08700000
Cr 108.48900000 143.38500000 150.00000000
Cr 108.48900000 143.38500000 152.91300000
Cr 108.48900000 143.38500000 155.82900000
Cr 108.48900000 147.79500000 144.17100000
Cr 108.48900000 147.79500000 147.08700000
Cr 108.48900000 147.79500000 150.00000000
Cr 108.48900000 147.79500000 152.91300000
Cr 108.48900000 147.79500000 155.82900000
Cr 108.48900000 152.20500000 144.17100000
Cr 108.48900000 152.20500000 147.08700000
Cr 108.48900000 152.20500000 150.00000000
Cr 108.48900000 152.20500000 152.91300000
Cr 108.48900000 152.20500000 155.82900000
Cr 108.48900000 156.61500000 144.17100000
Cr 108.48900000 156.61500000 147.08700000
Cr 108.48900000 156.61500000 150.00000000
Cr 108.48900000 156.61500000 152.91300000
Cr 108.48900000 156.61500000 155.82900000
Cr 108.48900000 161.02200000 141.25800000
Cr 108.48900000 143.38500000 158.74200000
Cr 108.48900000 143.38500000 161.65500000
Cr 108.48900000 147.79500000 158.74200000
Cr 108.48900000 147.79500000 161.65500000
Cr 108.48900000 147.79500000 164.56800000
Cr 108.48900000 152.20500000 158.74200000
Cr 108.48900000 152.20500000 161.65500000
Cr 108.48900000 152.20500000 164.56800000
Cr 108.48900000 156.61500000 158.74200000
Cr 108.48900000 156.61500000 161.65500000
Cr 108.48900000 161.02200000 144.17100000
Cr 108.48900000 161.02200000 147.08700000
Cr 108.48900000 161.02200000 150.00000000
Cr 108.48900000 161.02200000 152.91300000
Cr 108.48900000 161.02200000 155.82900000
Cr 108.48900000 165.43200000 147.08700000
Cr 108.48900000 165.43200000 150.00000000
Cr 108.48900000 165.43200000 152.91300000
Cr 108.48900000 161.02200000 158.74200000
Cr 110.69400000 136.77300000 145.62900000
Cr 110.69400000 136.77300000 148.54200000
Cr 110.69400000 136.77300000 151.45800000
Cr 110.69400000 136.77300000 154.37100000
Cr 110.69400000 141.18300000 139.80000000
Cr 110.69400000 141.18300000 142.71600000
Cr 110.69400000 141.18300000 145.62900000
Cr 110.69400000 141.18300000 148.54200000
Cr 110.69400000 141.18300000 151.45800000
Cr 110.69400000 141.18300000 154.37100000
Cr 110.69400000 141.18300000 157.28400000
Cr 110.69400000 141.18300000 160.20000000
Cr 110.69400000 145.59000000 136.88700000
Cr 110.69400000 145.59000000 139.80000000
Cr 110.69400000 145.59000000 142.71600000
Cr 110.69400000 145.59000000 145.62900000
Cr 110.69400000 145.59000000 148.54200000
Cr 110.69400000 145.59000000 151.45800000
Cr 110.69400000 145.59000000 154.37100000
Cr 110.69400000 145.59000000 157.28400000
Cr 110.69400000 145.59000000 160.20000000
Cr 110.69400000 145.59000000 163.11300000
Cr 110.69400000 150.00000000 136.88700000
Cr 110.69400000 150.00000000 139.80000000
Cr 110.69400000 150.00000000 142.71600000
Cr 110.69400000 150.00000000 145.62900000
Cr 110.69400000 150.00000000 148.54200000
Cr 110.69400000 150.00000000 151.45800000
Cr 110.69400000 150.00000000 154.37100000
Cr 110.69400000 150.00000000 157.28400000
Cr 110.69400000 150.00000000 160.20000000
Cr 110.69400000 150.00000000 163.11300000
Cr 110.69400000 154.41000000 136.88700000
Cr 110.69400000 154.41000000 139.80000000
Cr 110.69400000 154.41000000 142.71600000
Cr 110.69400000 154.41000000 145.62900000
Cr 110.69400000 154.41000000 148.54200000
Cr 110.69400000 154.41000000 151.45800000
Cr 110.69400000 154.41000000 154.37100000
Cr 110.69400000 154.41000000 157.28400000
Cr 110.69400000 154.41000000 160.20000000
Cr 110.69400000 154.41000000 163.11300000
Cr 110.69400000 158.81700000 139.80000000
Cr 110.69400000 158.81700000 142.71600000
Cr 110.69400000 158.81700000 145.62900000
Cr 110.69400000 158.81700000 148.54200000
Cr 110.69400000 158.81700000 151.45800000
Cr 110.69400000 158.81700000 154.37100000
Cr 110.69400000 158.81700000 157.28400000
Cr 110.69400000 158.81700000 160.20000000
Cr 110.69400000 163.22700000 145.62900000
Cr 110.69400000 163.22700000 148.54200000
Cr 110.69400000 163.22700000 151.45800000
Cr 110.69400000 163.22700000 154.37100000
Cr 112.89900000 138.97800000 144.17100000
Cr 112.89900000 138.97800000 147.08700000
Cr 112.89900000 138.97800000 150.00000000
Cr 112.89900000 138.97800000 152.91300000
Cr 112.89900000 138.97800000 155.82900000
Cr 112.89900000 143.38500000 141.25800000
Cr 112.89900000 143.38500000 144.17100000
Cr 112.89900000 143.38500000 147.08700000
Cr 112.89900000 143.38500000 150.00000000
Cr 112.89900000 143.38500000 152.91300000
Cr 112.89900000 143.38500000 155.82900000
Cr 112.89900000 143.38500000 158.74200000
Cr 112.89900000 147.79500000 138.34500000
Cr 112.89900000 147.79500000 141.25800000
Cr 112.89900000 147.79500000 144.17100000
Cr 112.89900000 147.79500000 147.08700000
Cr 112.89900000 147.79500000 150.00000000
Cr 112.89900000 147.79500000 152.91300000
Cr 112.89900000 147.79500000 155.82900000
Cr 112.89900000 147.79500000 158.74200000
Cr 112.89900000 147.79500000 161.65500000
Cr 112.89900000 152.20500000 138.34500000
Cr 112.89900000 152.20500000 141.25800000
Cr 112.89900000 152.20500000 144.17100000
Cr 112.89900000 152.20500000 147.08700000
Cr 112.89900000 152.20500000 150.00000000
Cr 112.89900000 152.20500000 152.91300000
Cr 112.89900000 152.20500000 155.82900000
Cr 112.89900000 152.20500000 158.74200000
Cr 112.89900000 152.20500000 161.65500000
Cr 112.89900000 156.61500000 141.25800000
Cr 112.89900000 156.61500000 144.17100000
Cr 112.89900000 156.61500000 147.08700000
Cr 112.89900000 156.61500000 150.00000000
Cr 112.89900000 156.61500000 152.91300000
Cr 112.89900000 156.61500000 155.82900000
Cr 112.89900000 156.61500000 158.74200000
Cr 112.89900000 161.02200000 144.17100000
Cr 112.89900000 161.02200000 147.08700000
Cr 112.89900000 161.02200000 150.00000000
Cr 112.89900000 161.02200000 152.91300000
Cr 112.89900000 161.02200000 155.82900000
Cr 115.10400000 141.18300000 145.62900000
Cr 115.10400000 141.18300000 148.54200000
Cr 115.10400000 141.18300000 151.45800000
Cr 115.10400000 141.18300000 154.37100000
Cr 115.10400000 145.59000000 142.71600000
Cr 115.10400000 145.59000000 145.62900000
Cr 115.10400000 145.59000000 148.54200000
Cr 115.10400000 145.59000000 151.45800000
Cr 115.10400000 145.59000000 154.37100000
Cr 115.10400000 145.59000000 157.28400000
Cr 115.10400000 150.00000000 139.80000000
Cr 115.10400000 150.00000000 142.71600000
Cr 115.10400000 150.00000000 145.62900000
Cr 115.10400000 150.00000000 148.54200000
Cr 115.10400000 150.00000000 151.45800000
Cr 115.10400000 150.00000000 154.37100000
Cr 115.10400000 150.00000000 157.28400000
Cr 115.10400000 150.00000000 160.20000000
Cr 115.10400000 154.41000000 142.71600000
Cr 115.10400000 154.41000000 145.62900000
Cr 115.10400000 154.41000000 148.54200000
Cr 115.10400000 154.41000000 151.45800000
Cr 115.10400000 154.41000000 154.37100000
Cr 115.10400000 154.41000000 157.28400000
Cr 115.10400000 158.81700000 145.62900000
Cr 115.10400000 158.81700000 148.54200000
Cr 115.10400000 158.81700000 151.45800000
Cr 115.10400000 158.81700000 154.37100000
Cr 117.30600000 143.38500000 147.08700000
Cr 117.30600000 143.38500000 150.00000000
Cr 117.30600000 143.38500000 152.91300000
Cr 117.30600000 147.79500000 144.17100000
Cr 117.30600000 147.79500000 147.08700000
Cr 117.30600000 147.79500000 150.00000000
Cr 117.30600000 147.79500000 152.91300000
Cr 117.30600000 147.79500000 155.82900000
Cr 117.30600000 152.20500000 144.17100000
Cr 117.30600000 152.20500000 147.08700000
Cr 117.30600000 152.20500000 150.00000000
Cr 117.30600000 152.20500000 152.91300000
Cr 117.30600000 152.20500000 155.82900000
Cr 117.30600000 156.61500000 147.08700000
Cr 117.30600000 156.61500000 150.00000000
Cr 117.30600000 156.61500000 152.91300000
O 85.10700000 146.46000000 150.00000000
O 85.10700000 150.87000000 147.08700000
O 85.10700000 150.87000000 150.00000000
O 85.10700000 150.87000000 152.91300000
O 85.57200000 148.66500000 145.62900000
O 85.57200000 148.66500000 148.54200000
O 85.57200000 148.66500000 151.45800000
O 85.57200000 148.66500000 154.37100000
O 85.57200000 153.07500000 145.62900000
O 85.57200000 153.07500000 148.54200000
O 85.57200000 153.07500000 151.45800000
O 85.57200000 153.07500000 154.37100000
O 87.31200000 142.51500000 145.62900000
O 87.31200000 142.51500000 148.54200000
O 87.31200000 142.51500000 151.45800000
O 87.31200000 142.51500000 154.37100000
O 87.31200000 146.92500000 142.71600000
O 87.31200000 146.92500000 145.62900000
O 87.31200000 146.92500000 148.54200000
O 87.31200000 146.92500000 151.45800000
O 87.31200000 146.92500000 154.37100000
O 87.31200000 146.92500000 157.28400000
O 87.31200000 151.33500000 142.71600000
O 87.31200000 151.33500000 145.62900000
O 87.31200000 151.33500000 148.54200000
O 87.31200000 151.33500000 151.45800000
O 87.31200000 151.33500000 154.37100000
O 87.31200000 151.33500000 157.28400000
O 87.31200000 155.74500000 145.62900000
O 87.31200000 155.74500000 148.54200000
O 87.31200000 155.74500000 151.45800000
O 87.31200000 155.74500000 154.37100000
O 87.77700000 140.31300000 150.00000000
O 87.77700000 144.72000000 144.17100000
O 87.77700000 144.72000000 147.08700000
O 87.77700000 144.72000000 150.00000000
O 87.77700000 144.72000000 152.91300000
O 87.77700000 144.72000000 155.82900000
O 87.77700000 149.13000000 141.25800000
O 87.77700000 149.13000000 144.17100000
O 87.77700000 149.13000000 147.08700000
O 87.77700000 149.13000000 150.00000000
O 87.77700000 149.13000000 152.91300000
O 87.77700000 149.13000000 155.82900000
O 87.77700000 149.13000000 158.74200000
O 87.77700000 153.54000000 141.25800000
O 87.77700000 153.54000000 144.17100000
O 87.77700000 153.54000000 147.08700000
O 87.77700000 153.54000000 150.00000000
O 87.77700000 153.54000000 152.91300000
O 87.77700000 153.54000000 155.82900000
O 87.77700000 153.54000000 158.74200000
O 87.77700000 157.95000000 144.17100000
O 87.77700000 157.95000000 147.08700000
O 87.77700000 157.95000000 150.00000000
O 87.77700000 157.95000000 152.91300000
O 87.77700000 157.95000000 155.82900000
O 89.51700000 142.05000000 141.25800000
O 89.51700000 142.05000000 144.17100000
O 89.51700000 142.05000000 147.08700000
O 89.51700000 142.05000000 150.00000000
O 89.51700000 142.05000000 152.91300000
O 89.51700000 142.05000000 155.82900000
O 89.51700000 142.05000000 158.74200000
O 89.51700000 146.46000000 141.25800000
O 89.51700000 146.46000000 144.17100000
O 89.51700000 146.46000000 147.08700000
O 89.51700000 146.46000000 150.00000000
O 89.51700000 146.46000000 152.91300000
O 89.51700000 146.46000000 155.82900000
O 89.51700000 146.46000000 158.74200000
O 89.51700000 150.87000000 138.34500000
O 89.51700000 150.87000000 141.25800000
O 89.51700000 150.87000000 144.17100000
O 89.51700000 150.87000000 147.08700000
O 89.51700000 150.87000000 150.00000000
O 89.51700000 150.87000000 152.91300000
O 89.51700000 150.87000000 155.82900000
O 89.51700000 150.87000000 158.74200000
O 89.51700000 150.87000000 161.65500000
O 89.51700000 155.28000000 141.25800000
O 89.51700000 155.28000000 144.17100000
O 89.51700000 155.28000000 147.08700000
O 89.51700000 155.28000000 150.00000000
O 89.51700000 155.28000000 152.91300000
O 89.51700000 155.28000000 155.82900000
O 89.51700000 155.28000000 158.74200000
O 89.51700000 159.68700000 144.17100000
O 89.51700000 159.68700000 147.08700000
O 89.51700000 159.68700000 150.00000000
O 89.51700000 159.68700000 152.91300000
O 89.51700000 159.68700000 155.82900000
O 89.98200000 139.84800000 145.62900000
O 89.98200000 139.84800000 148.54200000
O 89.98200000 139.84800000 151.45800000
O 89.98200000 139.84800000 154.37100000
O 89.98200000 144.25500000 139.80000000
O 89.98200000 144.25500000 142.71600000
O 89.98200000 144.25500000 145.62900000
O 89.98200000 144.25500000 148.54200000
O 89.98200000 144.25500000 151.45800000
O 89.98200000 144.25500000 154.37100000
O 89.98200000 144.25500000 157.28400000
O 89.98200000 144.25500000 160.20000000
O 89.98200000 148.66500000 139.80000000
O 89.98200000 148.66500000 142.71600000
O 89.98200000 148.66500000 145.62900000
O 89.98200000 148.66500000 148.54200000
O 89.98200000 148.66500000 151.45800000
O 89.98200000 148.66500000 154.37100000
O 89.98200000 148.66500000 157.28400000
O 89.98200000 148.66500000 160.20000000
O 89.98200000 153.07500000 139.80000000
O 89.98200000 153.07500000 142.71600000
O 89.98200000 153.07500000 145.62900000
O 89.98200000 153.07500000 148.54200000
O 89.98200000 153.07500000 151.45800000
O 89.98200000 153.07500000 154.37100000
O 89.98200000 153.07500000 157.28400000
O 89.98200000 153.07500000 160.20000000
O 89.98200000 157.48500000 142.71600000
O 89.98200000 157.48500000 145.62900000
O 89.98200000 157.48500000 148.54200000
O 89.98200000 157.48500000 151.45800000
O 89.98200000 157.48500000 154.37100000
O 89.98200000 157.48500000 157.28400000
O 89.98200000 161.89200000 148.54200000
O 89.98200000 161.89200000 151.45800000
O 91.72200000 138.10800000 145.62900000
O 91.72200000 138.10800000 148.54200000
O 91.72200000 138.10800000 151.45800000
O 91.72200000 138.10800000 154.37100000
O 91.72200000 142.51500000 139.80000000
O 91.72200000 142.51500000 142.71600000
O 91.72200000 142.51500000 145.62900000
O 91.72200000 142.51500000 148.54200000
O 91.72200000 142.51500000 151.45800000
O 91.72200000 142.51500000 154.37100000
O 91.72200000 142.51500000 157.28400000
O 91.72200000 142.51500000 160.20000000
O 91.72200000 146.92500000 136.88700000
O 91.72200000 146.92500000 139.80000000
O 91.72200000 146.92500000 142.71600000
O 91.72200000 146.92500000 145.62900000
O 91.72200000 146.92500000 148.54200000
O 91.72200000 146.92500000 151.45800000
O 91.72200000 146.92500000 154.37100000
O 91.72200000 146.92500000 157.28400000
O 91.72200000 146.92500000 160.20000000
O 91.72200000 146.92500000 163.11300000
O 91.72200000 151.33500000 136.88700000
O 91.72200000 151.33500000 139.80000000
O 91.72200000 151.33500000 142.71600000
O 91.72200000 151.33500000 145.62900000
O 91.72200000 151.33500000 148.54200000
O 91.72200000 151.33500000 151.45800000
O 91.72200000 151.33500000 154.37100000
O 91.72200000 151.33500000 157.28400000
O 91.72200000 151.33500000 160.20000000
O 91.72200000 151.33500000 163.11300000
O 91.72200000 155.74500000 139.80000000
O 91.72200000 155.74500000 142.71600000
O 91.72200000 155.74500000 145.62900000
O 91.72200000 155.74500000 148.54200000
O 91.72200000 155.74500000 151.45800000
O 91.72200000 155.74500000 154.37100000
O 91.72200000 155.74500000 157.28400000
O 91.72200000 155.74500000 160.20000000
O 91.72200000 160.15200000 142.71600000
O 91.72200000 160.15200000 145.62900000
O 91.72200000 160.15200000 148.54200000
O 91.72200000 160.15200000 151.45800000
O 91.72200000 160.15200000 154.37100000
O 91.72200000 160.15200000 157.28400000
O 92.18700000 135.90300000 150.00000000
O 92.18700000 140.31300000 141.25800000
O 92.18700000 140.31300000 144.17100000
O 92.18700000 140.31300000 147.08700000
O 92.18700000 140.31300000 150.00000000
O 92.18700000 140.31300000 152.91300000
O 92.18700000 140.31300000 155.82900000
O 92.18700000 140.31300000 158.74200000
O 92.18700000 144.72000000 138.34500000
O 92.18700000 144.72000000 141.25800000
O 92.18700000 144.72000000 144.17100000
O 92.18700000 144.72000000 147.08700000
O 92.18700000 144.72000000 150.00000000
O 92.18700000 144.72000000 152.91300000
O 92.18700000 144.72000000 155.82900000
O 92.18700000 144.72000000 158.74200000
O 92.18700000 144.72000000 161.65500000
O 92.18700000 149.13000000 138.34500000
O 92.18700000 149.13000000 141.25800000
O 92.18700000 149.13000000 144.17100000
O 92.18700000 149.13000000 147.08700000
O 92.18700000 149.13000000 150.00000000
O 92.18700000 149.13000000 152.91300000
O 92.18700000 149.13000000 155.82900000
O 92.18700000 149.13000000 158.74200000
O 92.18700000 149.13000000 161.65500000
O 92.18700000 153.54000000 138.34500000
O 92.18700000 153.54000000 141.25800000
O 92.18700000 153.54000000 144.17100000
O 92.18700000 153.54000000 147.08700000
O 92.18700000 153.54000000 150.00000000
O 92.18700000 153.54000000 152.91300000
O 92.18700000 153.54000000 155.82900000
O 92.18700000 153.54000000 158.74200000
O 92.18700000 153.54000000 161.65500000
O 92.18700000 157.95000000 138.34500000
O 92.18700000 157.95000000 141.25800000
O 92.18700000 157.95000000 144.17100000
O 92.18700000 157.95000000 147.08700000
O 92.18700000 157.95000000 150.00000000
O 92.18700000 157.95000000 152.91300000
O 92.18700000 157.95000000 155.82900000
O 92.18700000 157.95000000 158.74200000
O 92.18700000 157.95000000 161.65500000
O 92.18700000 162.35700000 144.17100000
O 92.18700000 162.35700000 147.08700000
O 92.18700000 162.35700000 150.00000000
O 92.18700000 162.35700000 152.91300000
O 92.18700000 162.35700000 155.82900000
O 93.92700000 137.64300000 141.25800000
O 93.92700000 137.64300000 144.17100000
O 93.92700000 137.64300000 147.08700000
O 93.92700000 137.64300000 150.00000000
O 93.92700000 137.64300000 152.91300000
O 93.92700000 137.64300000 155.82900000
O 93.92700000 142.05000000 138.34500000
O 93.92700000 142.05000000 141.25800000
O 93.92700000 146.46000000 135.42900000
O 93.92700000 146.46000000 138.34500000
O 93.92700000 146.46000000 141.25800000
O 93.92700000 150.87000000 135.42900000
O 93.92700000 150.87000000 138.34500000
O 93.92700000 150.87000000 141.25800000
O 93.92700000 137.64300000 158.74200000
O 93.92700000 142.05000000 144.17100000
O 93.92700000 142.05000000 147.08700000
O 93.92700000 142.05000000 150.00000000
O 93.92700000 142.05000000 152.91300000
O 93.92700000 142.05000000 155.82900000
O 93.92700000 146.46000000 144.17100000
O 93.92700000 146.46000000 147.08700000
O 93.92700000 146.46000000 150.00000000
O 93.92700000 146.46000000 152.91300000
O 93.92700000 146.46000000 155.82900000
O 93.92700000 150.87000000 144.17100000
O 93.92700000 150.87000000 147.08700000
O 93.92700000 150.87000000 150.00000000
O 93.92700000 150.87000000 152.91300000
O 93.92700000 150.87000000 155.82900000
O 93.92700000 155.28000000 138.34500000
O 93.92700000 155.28000000 141.25800000
O 93.92700000 159.68700000 138.34500000
O 93.92700000 159.68700000 141.25800000
O 93.92700000 142.05000000 158.74200000
O 93.92700000 142.05000000 161.65500000
O 93.92700000 146.46000000 158.74200000
O 93.92700000 146.46000000 161.65500000
O 93.92700000 146.46000000 164.56800000
O 93.92700000 150.87000000 158.74200000
O 93.92700000 150.87000000 161.65500000
O 93.92700000 150.87000000 164.56800000
O 93.92700000 155.28000000 144.17100000
O 93.92700000 155.28000000 147.08700000
O 93.92700000 155.28000000 150.00000000
O 93.92700000 155.28000000 152.91300000
O 93.92700000 155.28000000 155.82900000
O 93.92700000 159.68700000 144.17100000
O 93.92700000 159.68700000 147.08700000
O 93.92700000 159.68700000 150.00000000
O 93.92700000 159.68700000 152.91300000
O 93.92700000 159.68700000 155.82900000
O 93.92700000 164.09700000 147.08700000
O 93.92700000 164.09700000 150.00000000
O 93.92700000 164.09700000 152.91300000
O 93.92700000 155.28000000 158.74200000
O 93.92700000 155.28000000 161.65500000
O 93.92700000 159.68700000 158.74200000
O 93.92700000 159.68700000 161.65500000
O 94.39200000 139.84800000 139.80000000
O 94.39200000 139.84800000 142.71600000
O 94.39200000 144.25500000 136.88700000
O 94.39200000 144.25500000 139.80000000
O 94.39200000 144.25500000 142.71600000
O 94.39200000 135.43800000 145.62900000
O 94.39200000 135.43800000 148.54200000
O 94.39200000 135.43800000 151.45800000
O 94.39200000 135.43800000 154.37100000
O 94.39200000 139.84800000 145.62900000
O 94.39200000 139.84800000 148.54200000
O 94.39200000 139.84800000 151.45800000
O 94.39200000 139.84800000 154.37100000
O 94.39200000 144.25500000 145.62900000
O 94.39200000 144.25500000 148.54200000
O 94.39200000 144.25500000 151.45800000
O 94.39200000 144.25500000 154.37100000
O 94.39200000 148.66500000 136.88700000
O 94.39200000 148.66500000 139.80000000
O 94.39200000 148.66500000 142.71600000
O 94.39200000 153.07500000 136.88700000
O 94.39200000 153.07500000 139.80000000
O 94.39200000 153.07500000 142.71600000
O 94.39200000 157.48500000 136.88700000
O 94.39200000 157.48500000 139.80000000
O 94.39200000 157.48500000 142.71600000
O 94.39200000 139.84800000 157.28400000
O 94.39200000 139.84800000 160.20000000
O 94.39200000 144.25500000 157.28400000
O 94.39200000 144.25500000 160.20000000
O 94.39200000 144.25500000 163.11300000
O 94.39200000 148.66500000 145.62900000
O 94.39200000 148.66500000 148.54200000
O 94.39200000 148.66500000 151.45800000
O 94.39200000 148.66500000 154.37100000
O 94.39200000 153.07500000 145.62900000
O 94.39200000 153.07500000 148.54200000
O 94.39200000 153.07500000 151.45800000
O 94.39200000 153.07500000 154.37100000
O 94.39200000 157.48500000 145.62900000
O 94.39200000 157.48500000 148.54200000
O 94.39200000 157.48500000 151.45800000
O 94.39200000 157.48500000 154.37100000
O 94.39200000 161.89200000 142.71600000
O 94.39200000 148.66500000 157.28400000
O 94.39200000 148.66500000 160.20000000
O 94.39200000 148.66500000 163.11300000
O 94.39200000 153.07500000 157.28400000
O 94.39200000 153.07500000 160.20000000
O 94.39200000 153.07500000 163.11300000
O 94.39200000 157.48500000 157.28400000
O 94.39200000 157.48500000 160.20000000
O 94.39200000 157.48500000 163.11300000
O 94.39200000 161.89200000 145.62900000
O 94.39200000 161.89200000 148.54200000
O 94.39200000 161.89200000 151.45800000
O 94.39200000 161.89200000 154.37100000
O 94.39200000 161.89200000 157.28400000
O 96.13200000 138.10800000 139.80000000
O 96.13200000 138.10800000 142.71600000
O 96.13200000 138.10800000 145.62900000
O 96.13200000 138.10800000 148.54200000
O 96.13200000 138.10800000 151.45800000
O 96.13200000 138.10800000 154.37100000
O 96.13200000 142.51500000 136.88700000
O 96.13200000 142.51500000 139.80000000
O 96.13200000 142.51500000 142.71600000
O 96.13200000 146.92500000 136.88700000
O 96.13200000 146.92500000 139.80000000
O 96.13200000 146.92500000 142.71600000
O 96.13200000 151.33500000 133.97400000
O 96.13200000 151.33500000 136.88700000
O 96.13200000 151.33500000 139.80000000
O 96.13200000 151.33500000 142.71600000
O 96.13200000 138.10800000 157.28400000
O 96.13200000 138.10800000 160.20000000
O 96.13200000 142.51500000 145.62900000
O 96.13200000 142.51500000 148.54200000
O 96.13200000 142.51500000 151.45800000
O 96.13200000 142.51500000 154.37100000
O 96.13200000 146.92500000 145.62900000
O 96.13200000 146.92500000 148.54200000
O 96.13200000 146.92500000 151.45800000
O 96.13200000 146.92500000 154.37100000
O 96.13200000 151.33500000 145.62900000
O 96.13200000 151.33500000 148.54200000
O 96.13200000 151.33500000 151.45800000
O 96.13200000 151.33500000 154.37100000
O 96.13200000 155.74500000 136.88700000
O 96.13200000 155.74500000 139.80000000
O 96.13200000 155.74500000 142.71600000
O 96.13200000 160.15200000 139.80000000
O 96.13200000 160.15200000 142.71600000
O 96.13200000 142.51500000 157.28400000
O 96.13200000 142.51500000 160.20000000
O 96.13200000 142.51500000 163.11300000
O 96.13200000 146.92500000 157.28400000
O 96.13200000 146.92500000 160.20000000
O 96.13200000 146.92500000 163.11300000
O 96.13200000 151.33500000 157.28400000
O 96.13200000 151.33500000 160.20000000
O 96.13200000 151.33500000 163.11300000
O 96.13200000 151.33500000 166.02600000
O 96.13200000 155.74500000 145.62900000
O 96.13200000 155.74500000 148.54200000
O 96.13200000 155.74500000 151.45800000
O 96.13200000 155.74500000 154.37100000
O 96.13200000 160.15200000 145.62900000
O 96.13200000 160.15200000 148.54200000
O 96.13200000 160.15200000 151.45800000
O 96.13200000 160.15200000 154.37100000
O 96.13200000 164.56200000 145.62900000
O 96.13200000 164.56200000 148.54200000
O 96.13200000 164.56200000 151.45800000
O 96.13200000 164.56200000 154.37100000
O 96.13200000 155.74500000 157.28400000
O 96.13200000 155.74500000 160.20000000
O 96.13200000 155.74500000 163.11300000
O 96.13200000 160.15200000 157.28400000
O 96.13200000 160.15200000 160.20000000
O 96.59700000 140.31300000 138.34500000
O 96.59700000 140.31300000 141.25800000
O 96.59700000 144.72000000 135.42900000
O 96.59700000 144.72000000 138.34500000
O 96.59700000 144.72000000 141.25800000
O 96.59700000 135.90300000 144.17100000
O 96.59700000 135.90300000 147.08700000
O 96.59700000 135.90300000 150.00000000
O 96.59700000 135.90300000 152.91300000
O 96.59700000 135.90300000 155.82900000
O 96.59700000 140.31300000 144.17100000
O 96.59700000 140.31300000 147.08700000
O 96.59700000 140.31300000 150.00000000
O 96.59700000 140.31300000 152.91300000
O 96.59700000 140.31300000 155.82900000
O 96.59700000 144.72000000 144.17100000
O 96.59700000 144.72000000 147.08700000
O 96.59700000 144.72000000 150.00000000
O 96.59700000 144.72000000 152.91300000
O 96.59700000 144.72000000 155.82900000
O 96.59700000 149.13000000 135.42900000
O 96.59700000 149.13000000 138.34500000
O 96.59700000 149.13000000 141.25800000
O 96.59700000 153.54000000 135.42900000
O 96.59700000 153.54000000 138.34500000
O 96.59700000 153.54000000 141.25800000
O 96.59700000 157.95000000 138.34500000
O 96.59700000 157.95000000 141.25800000
O 96.59700000 140.31300000 158.74200000
O 96.59700000 140.31300000 161.65500000
O 96.59700000 144.72000000 158.74200000
O 96.59700000 144.72000000 161.65500000
O 96.59700000 144.72000000 164.56800000
O 96.59700000 149.13000000 144.17100000
O 96.59700000 149.13000000 147.08700000
O 96.59700000 149.13000000 150.00000000
O 96.59700000 149.13000000 152.91300000
O 96.59700000 149.13000000 155.82900000
O 96.59700000 153.54000000 144.17100000
O 96.59700000 153.54000000 147.08700000
O 96.59700000 153.54000000 150.00000000
O 96.59700000 153.54000000 152.91300000
O 96.59700000 153.54000000 155.82900000
O 96.59700000 157.95000000 144.17100000
O 96.59700000 157.95000000 147.08700000
O 96.59700000 157.95000000 150.00000000
O 96.59700000 157.95000000 152.91300000
O 96.59700000 157.95000000 155.82900000
O 96.59700000 162.35700000 141.25800000
O 96.59700000 149.13000000 158.74200000
O 96.59700000 149.13000000 161.65500000
O 96.59700000 149.13000000 164.56800000
O 96.59700000 153.54000000 158.74200000
O 96.59700000 153.54000000 161.65500000
O 96.59700000 153.54000000 164.56800000
O 96.59700000 157.95000000 158.74200000
O 96.59700000 157.95000000 161.65500000
O 96.59700000 162.35700000 144.17100000
O 96.59700000 162.35700000 147.08700000
O 96.59700000 162.35700000 150.00000000
O 96.59700000 162.35700000 152.91300000
O 96.59700000 162.35700000 155.82900000
O 96.59700000 162.35700000 158.74200000
O 98.33400000 142.05000000 135.42900000
O 98.33400000 142.05000000 138.34500000
O 98.33400000 133.23300000 150.00000000
O 98.33400000 137.64300000 141.25800000
O 98.33400000 137.64300000 144.17100000
O 98.33400000 142.05000000 141.25800000
O 98.33400000 142.05000000 144.17100000
O 98.33400000 146.46000000 135.42900000
O 98.33400000 146.46000000 138.34500000
O 98.33400000 137.64300000 147.08700000
O 98.33400000 137.64300000 150.00000000
O 98.33400000 137.64300000 152.91300000
O 98.33400000 142.05000000 147.08700000
O 98.33400000 142.05000000 150.00000000
O 98.33400000 142.05000000 152.91300000
O 98.33400000 146.46000000 141.25800000
O 98.33400000 146.46000000 144.17100000
O 98.33400000 150.87000000 135.42900000
O 98.33400000 150.87000000 138.34500000
O 98.33400000 155.28000000 135.42900000
O 98.33400000 155.28000000 138.34500000
O 98.33400000 137.64300000 155.82900000
O 98.33400000 137.64300000 158.74200000
O 98.33400000 142.05000000 155.82900000
O 98.33400000 142.05000000 158.74200000
O 98.33400000 146.46000000 147.08700000
O 98.33400000 146.46000000 150.00000000
O 98.33400000 146.46000000 152.91300000
O 98.33400000 150.87000000 141.25800000
O 98.33400000 150.87000000 144.17100000
O 98.33400000 155.28000000 141.25800000
O 98.33400000 155.28000000 144.17100000
O 98.33400000 159.68700000 138.34500000
O 98.33400000 142.05000000 161.65500000
O 98.33400000 142.05000000 164.56800000
O 98.33400000 146.46000000 155.82900000
O 98.33400000 146.46000000 158.74200000
O 98.33400000 150.87000000 147.08700000
O 98.33400000 150.87000000 150.00000000
O 98.33400000 150.87000000 152.91300000
O 98.33400000 155.28000000 147.08700000
O 98.33400000 155.28000000 150.00000000
O 98.33400000 155.28000000 152.91300000
O 98.33400000 159.68700000 141.25800000
O 98.33400000 159.68700000 144.17100000
O 98.33400000 164.09700000 141.25800000
O 98.33400000 164.09700000 144.17100000
O 98.33400000 146.46000000 161.65500000
O 98.33400000 146.46000000 164.56800000
O 98.33400000 150.87000000 155.82900000
O 98.33400000 150.87000000 158.74200000
O 98.33400000 155.28000000 155.82900000
O 98.33400000 155.28000000 158.74200000
O 98.33400000 159.68700000 147.08700000
O 98.33400000 159.68700000 150.00000000
O 98.33400000 159.68700000 152.91300000
O 98.33400000 164.09700000 147.08700000
O 98.33400000 164.09700000 150.00000000
O 98.33400000 164.09700000 152.91300000
O 98.33400000 150.87000000 161.65500000
O 98.33400000 150.87000000 164.56800000
O 98.33400000 155.28000000 161.65500000
O 98.33400000 155.28000000 164.56800000
O 98.33400000 159.68700000 155.82900000
O 98.33400000 159.68700000 158.74200000
O 98.33400000 164.09700000 155.82900000
O 98.33400000 164.09700000 158.74200000
O 98.33400000 159.68700000 161.65500000
O 98.80200000 139.84800000 136.88700000
O 98.80200000 135.43800000 142.71600000
O 98.80200000 135.43800000 145.62900000
O 98.80200000 139.84800000 139.80000000
O 98.80200000 139.84800000 142.71600000
O 98.80200000 139.84800000 145.62900000
O 98.80200000 144.25500000 136.88700000
O 98.80200000 148.66500000 133.97400000
O 98.80200000 148.66500000 136.88700000
O 98.80200000 135.43800000 148.54200000
O 98.80200000 135.43800000 151.45800000
O 98.80200000 139.84800000 148.54200000
O 98.80200000 139.84800000 151.45800000
O 98.80200000 144.25500000 139.80000000
O 98.80200000 144.25500000 142.71600000
O 98.80200000 144.25500000 145.62900000
O 98.80200000 148.66500000 139.80000000
O 98.80200000 148.66500000 142.71600000
O 98.80200000 148.66500000 145.62900000
O 98.80200000 153.07500000 133.97400000
O 98.80200000 153.07500000 136.88700000
O 98.80200000 135.43800000 154.37100000
O 98.80200000 135.43800000 157.28400000
O 98.80200000 139.84800000 154.37100000
O 98.80200000 139.84800000 157.28400000
O 98.80200000 139.84800000 160.20000000
O 98.80200000 144.25500000 148.54200000
O 98.80200000 144.25500000 151.45800000
O 98.80200000 148.66500000 148.54200000
O 98.80200000 148.66500000 151.45800000
O 98.80200000 153.07500000 139.80000000
O 98.80200000 153.07500000 142.71600000
O 98.80200000 153.07500000 145.62900000
O 98.80200000 157.48500000 136.88700000
O 98.80200000 139.84800000 163.11300000
O 98.80200000 144.25500000 154.37100000
O 98.80200000 144.25500000 157.28400000
O 98.80200000 144.25500000 160.20000000
O 98.80200000 148.66500000 154.37100000
O 98.80200000 148.66500000 157.28400000
O 98.80200000 148.66500000 160.20000000
O 98.80200000 153.07500000 148.54200000
O 98.80200000 153.07500000 151.45800000
O 98.80200000 157.48500000 139.80000000
O 98.80200000 157.48500000 142.71600000
O 98.80200000 157.48500000 145.62900000
O 98.80200000 161.89200000 139.80000000
O 98.80200000 161.89200000 142.71600000
O 98.80200000 161.89200000 145.62900000
O 98.80200000 144.25500000 163.11300000
O 98.80200000 148.66500000 163.11300000
O 98.80200000 148.66500000 166.02600000
O 98.80200000 153.07500000 154.37100000
O 98.80200000 153.07500000 157.28400000
O 98.80200000 153.07500000 160.20000000
O 98.80200000 157.48500000 148.54200000
O 98.80200000 157.48500000 151.45800000
O 98.80200000 161.89200000 148.54200000
O 98.80200000 161.89200000 151.45800000
O 98.80200000 166.30200000 145.62900000
O 98.80200000 153.07500000 163.11300000
O 98.80200000 153.07500000 166.02600000
O 98.80200000 157.48500000 154.37100000
O 98.80200000 157.48500000 157.28400000
O 98.80200000 157.48500000 160.20000000
O 98.80200000 161.89200000 154.37100000
O 98.80200000 161.89200000 157.28400000
O 98.80200000 161.89200000 160.20000000
O 98.80200000 166.30200000 148.54200000
O 98.80200000 166.30200000 151.45800000
O 98.80200000 157.48500000 163.11300000
O 98.80200000 166.30200000 154.37100000
O 100.53900000 138.10800000 139.80000000
O 100.53900000 133.69800000 145.62900000
O 100.53900000 138.10800000 142.71600000
O 100.53900000 142.51500000 136.88700000
O 100.53900000 133.69800000 148.54200000
O 100.53900000 133.69800000 151.45800000
O 100.53900000 138.10800000 145.62900000
O 100.53900000 142.51500000 139.80000000
O 100.53900000 146.92500000 133.97400000
O 100.53900000 146.92500000 136.88700000
O 100.53900000 133.69800000 154.37100000
O 100.53900000 138.10800000 148.54200000
O 100.53900000 138.10800000 151.45800000
O 100.53900000 142.51500000 142.71600000
O 100.53900000 146.92500000 139.80000000
O 100.53900000 151.33500000 133.97400000
O 100.53900000 151.33500000 136.88700000
O 100.53900000 138.10800000 154.37100000
O 100.53900000 142.51500000 145.62900000
O 100.53900000 146.92500000 142.71600000
O 100.53900000 151.33500000 139.80000000
O 100.53900000 155.74500000 133.97400000
O 100.53900000 155.74500000 136.88700000
O 100.53900000 138.10800000 157.28400000
O 100.53900000 142.51500000 148.54200000
O 100.53900000 142.51500000 151.45800000
O 100.53900000 146.92500000 145.62900000
O 100.53900000 151.33500000 142.71600000
O 100.53900000 155.74500000 139.80000000
O 100.53900000 138.10800000 160.20000000
O 100.53900000 142.51500000 154.37100000
O 100.53900000 146.92500000 148.54200000
O 100.53900000 146.92500000 151.45800000
O 100.53900000 151.33500000 145.62900000
O 100.53900000 155.74500000 142.71600000
O 100.53900000 160.15200000 136.88700000
O 100.53900000 142.51500000 157.28400000
O 100.53900000 146.92500000 154.37100000
O 100.53900000 151.33500000 148.54200000
O 100.53900000 151.33500000 151.45800000
O 100.53900000 155.74500000 145.62900000
O 100.53900000 160.15200000 139.80000000
O 100.53900000 142.51500000 160.20000000
O 100.53900000 146.92500000 157.28400000
O 100.53900000 151.33500000 154.37100000
O 100.53900000 155.74500000 148.54200000
O 100.53900000 155.74500000 151.45800000
O 100.53900000 160.15200000 142.71600000
O 100.53900000 142.51500000 163.11300000
O 100.53900000 146.92500000 160.20000000
O 100.53900000 151.33500000 157.28400000
O 100.53900000 155.74500000 154.37100000
O 100.53900000 160.15200000 145.62900000
O 100.53900000 164.56200000 142.71600000
O 100.53900000 146.92500000 163.11300000
O 100.53900000 146.92500000 166.02600000
O 100.53900000 151.33500000 160.20000000
O 100.53900000 155.74500000 157.28400000
O 100.53900000 160.15200000 148.54200000
O 100.53900000 160.15200000 151.45800000
O 100.53900000 164.56200000 145.62900000
O 100.53900000 151.33500000 163.11300000
O 100.53900000 151.33500000 166.02600000
O 100.53900000 155.74500000 160.20000000
O 100.53900000 160.15200000 154.37100000
O 100.53900000 164.56200000 148.54200000
O 100.53900000 164.56200000 151.45800000
O 100.53900000 155.74500000 163.11300000
O 100.53900000 155.74500000 166.02600000
O 100.53900000 160.15200000 157.28400000
O 100.53900000 164.56200000 154.37100000
O 100.53900000 160.15200000 160.20000000
O 100.53900000 164.56200000 157.28400000
O 100.53900000 160.15200000 163.11300000
O 101.00400000 135.90300000 141.25800000
O 101.00400000 140.31300000 138.34500000
O 101.00400000 135.90300000 144.17100000
O 101.00400000 140.31300000 141.25800000
O 101.00400000 144.72000000 135.42900000
O 101.00400000 135.90300000 147.08700000
O 101.00400000 140.31300000 144.17100000
O 101.00400000 144.72000000 138.34500000
O 101.00400000 149.13000000 135.42900000
O 101.00400000 135.90300000 150.00000000
O 101.00400000 140.31300000 147.08700000
O 101.00400000 144.72000000 141.25800000
O 101.00400000 149.13000000 138.34500000
O 101.00400000 153.54000000 135.42900000
O 101.00400000 135.90300000 152.91300000
O 101.00400000 140.31300000 150.00000000
O 101.00400000 144.72000000 144.17100000
O 101.00400000 149.13000000 141.25800000
O 101.00400000 135.90300000 155.82900000
O 101.00400000 144.72000000 147.08700000
O 101.00400000 153.54000000 138.34500000
O 101.00400000 140.31300000 152.91300000
O 101.00400000 149.13000000 144.17100000
O 101.00400000 153.54000000 141.25800000
O 101.00400000 157.95000000 135.42900000
O 101.00400000 135.90300000 158.74200000
O 101.00400000 140.31300000 155.82900000
O 101.00400000 144.72000000 150.00000000
O 101.00400000 149.13000000 147.08700000
O 101.00400000 153.54000000 144.17100000
O 101.00400000 157.95000000 138.34500000
O 101.00400000 140.31300000 158.74200000
O 101.00400000 144.72000000 152.91300000
O 101.00400000 149.13000000 150.00000000
O 101.00400000 153.54000000 147.08700000
O 101.00400000 157.95000000 141.25800000
O 101.00400000 140.31300000 161.65500000
O 101.00400000 144.72000000 155.82900000
O 101.00400000 162.35700000 138.34500000
O 101.00400000 149.13000000 152.91300000
O 101.00400000 153.54000000 150.00000000
O 101.00400000 157.95000000 144.17100000
O 101.00400000 162.35700000 141.25800000
O 101.00400000 144.72000000 158.74200000
O 101.00400000 149.13000000 155.82900000
O 101.00400000 157.95000000 147.08700000
O 101.00400000 144.72000000 161.65500000
O 101.00400000 153.54000000 152.91300000
O 101.00400000 162.35700000 144.17100000
O 101.00400000 149.13000000 158.74200000
O 101.00400000 153.54000000 155.82900000
O 101.00400000 157.95000000 150.00000000
O 101.00400000 162.35700000 147.08700000
O 101.00400000 144.72000000 164.56800000
O 101.00400000 149.13000000 161.65500000
O 101.00400000 153.54000000 158.74200000
O 101.00400000 157.95000000 152.91300000
O 101.00400000 162.35700000 150.00000000
O 101.00400000 149.13000000 164.56800000
O 101.00400000 153.54000000 161.65500000
O 101.00400000 157.95000000 155.82900000
O 101.00400000 166.76700000 147.08700000
O 101.00400000 162.35700000 152.91300000
O 101.00400000 153.54000000 164.56800000
O 101.00400000 157.95000000 158.74200000
O 101.00400000 162.35700000 155.82900000
O 101.00400000 166.76700000 150.00000000
O 101.00400000 157.95000000 161.65500000
O 101.00400000 162.35700000 158.74200000
O 101.00400000 166.76700000 152.91300000
O 101.00400000 157.95000000 164.56800000
O 101.00400000 162.35700000 161.65500000
O 102.74400000 137.64300000 138.34500000
O 102.74400000 142.05000000 135.42900000
O 102.74400000 133.23300000 147.08700000
O 102.74400000 137.64300000 141.25800000
O 102.74400000 142.05000000 138.34500000
O 102.74400000 133.23300000 150.00000000
O 102.74400000 137.64300000 144.17100000
O 102.74400000 142.05000000 141.25800000
O 102.74400000 146.46000000 135.42900000
O 102.74400000 137.64300000 147.08700000
O 102.74400000 133.23300000 152.91300000
O 102.74400000 142.05000000 144.17100000
O 102.74400000 146.46000000 138.34500000
O 102.74400000 150.87000000 135.42900000
O 102.74400000 137.64300000 150.00000000
O 102.74400000 142.05000000 147.08700000
O 102.74400000 146.46000000 141.25800000
O 102.74400000 150.87000000 138.34500000
O 102.74400000 155.28000000 135.42900000
O 102.74400000 137.64300000 152.91300000
O 102.74400000 142.05000000 150.00000000
O 102.74400000 146.46000000 144.17100000
O 102.74400000 150.87000000 141.25800000
O 102.74400000 137.64300000 155.82900000
O 102.74400000 146.46000000 147.08700000
O 102.74400000 155.28000000 138.34500000
O 102.74400000 142.05000000 152.91300000
O 102.74400000 150.87000000 144.17100000
O 102.74400000 155.28000000 141.25800000
O 102.74400000 137.64300000 158.74200000
O 102.74400000 142.05000000 155.82900000
O 102.74400000 146.46000000 150.00000000
O 102.74400000 150.87000000 147.08700000
O 102.74400000 137.64300000 161.65500000
O 102.74400000 155.28000000 144.17100000
O 102.74400000 159.68700000 138.34500000
O 102.74400000 142.05000000 158.74200000
O 102.74400000 146.46000000 152.91300000
O 102.74400000 150.87000000 150.00000000
O 102.74400000 155.28000000 147.08700000
O 102.74400000 159.68700000 141.25800000
O 102.74400000 142.05000000 161.65500000
O 102.74400000 146.46000000 155.82900000
O 102.74400000 150.87000000 152.91300000
O 102.74400000 155.28000000 150.00000000
O 102.74400000 159.68700000 144.17100000
O 102.74400000 164.09700000 141.25800000
O 102.74400000 142.05000000 164.56800000
O 102.74400000 146.46000000 158.74200000
O 102.74400000 150.87000000 155.82900000
O 102.74400000 159.68700000 147.08700000
O 102.74400000 146.46000000 161.65500000
O 102.74400000 155.28000000 152.91300000
O 102.74400000 164.09700000 144.17100000
O 102.74400000 150.87000000 158.74200000
O 102.74400000 155.28000000 155.82900000
O 102.74400000 159.68700000 150.00000000
O 102.74400000 164.09700000 147.08700000
O 102.74400000 146.46000000 164.56800000
O 102.74400000 150.87000000 161.65500000
O 102.74400000 155.28000000 158.74200000
O 102.74400000 159.68700000 152.91300000
O 102.74400000 164.09700000 150.00000000
O 102.74400000 150.87000000 164.56800000
O 102.74400000 155.28000000 161.65500000
O 102.74400000 159.68700000 155.82900000
O 102.74400000 164.09700000 152.91300000
O 102.74400000 155.28000000 164.56800000
O 102.74400000 159.68700000 158.74200000
O 102.74400000 164.09700000 155.82900000
O 102.74400000 159.68700000 161.65500000
O 102.74400000 164.09700000 158.74200000
O 103.20900000 139.84800000 136.88700000
O 103.20900000 135.43800000 142.71600000
O 103.20900000 139.84800000 139.80000000
O 103.20900000 135.43800000 145.62900000
O 103.20900000 139.84800000 142.71600000
O 103.20900000 144.25500000 133.97400000
O 103.20900000 144.25500000 136.88700000
O 103.20900000 135.43800000 148.54200000
O 103.20900000 135.43800000 151.45800000
O 103.20900000 139.84800000 145.62900000
O 103.20900000 144.25500000 139.80000000
O 103.20900000 148.66500000 133.97400000
O 103.20900000 148.66500000 136.88700000
O 103.20900000 135.43800000 154.37100000
O 103.20900000 139.84800000 148.54200000
O 103.20900000 139.84800000 151.45800000
O 103.20900000 144.25500000 142.71600000
O 103.20900000 148.66500000 139.80000000
O 103.20900000 153.07500000 133.97400000
O 103.20900000 153.07500000 136.88700000
O 103.20900000 135.43800000 157.28400000
O 103.20900000 139.84800000 154.37100000
O 103.20900000 144.25500000 145.62900000
O 103.20900000 148.66500000 142.71600000
O 103.20900000 153.07500000 139.80000000
O 103.20900000 157.48500000 136.88700000
O 103.20900000 139.84800000 157.28400000
O 103.20900000 144.25500000 148.54200000
O 103.20900000 144.25500000 151.45800000
O 103.20900000 148.66500000 145.62900000
O 103.20900000 153.07500000 142.71600000
O 103.20900000 157.48500000 139.80000000
O 103.20900000 139.84800000 160.20000000
O 103.20900000 144.25500000 154.37100000
O 103.20900000 148.66500000 148.54200000
O 103.20900000 148.66500000 151.45800000
O 103.20900000 153.07500000 145.62900000
O 103.20900000 157.48500000 142.71600000
O 103.20900000 139.84800000 163.11300000
O 103.20900000 144.25500000 157.28400000
O 103.20900000 148.66500000 154.37100000
O 103.20900000 153.07500000 148.54200000
O 103.20900000 153.07500000 151.45800000
O 103.20900000 157.48500000 145.62900000
O 103.20900000 161.89200000 139.80000000
O 103.20900000 144.25500000 160.20000000
O 103.20900000 148.66500000 157.28400000
O 103.20900000 153.07500000 154.37100000
O 103.20900000 157.48500000 148.54200000
O 103.20900000 157.48500000 151.45800000
O 103.20900000 161.89200000 142.71600000
O 103.20900000 144.25500000 163.11300000
O 103.20900000 144.25500000 166.02600000
O 103.20900000 148.66500000 160.20000000
O 103.20900000 153.07500000 157.28400000
O 103.20900000 157.48500000 154.37100000
O 103.20900000 161.89200000 145.62900000
O 103.20900000 148.66500000 163.11300000
O 103.20900000 148.66500000 166.02600000
O 103.20900000 153.07500000 160.20000000
O 103.20900000 157.48500000 157.28400000
O 103.20900000 161.89200000 148.54200000
O 103.20900000 161.89200000 151.45800000
O 103.20900000 166.30200000 145.62900000
O 103.20900000 153.07500000 163.11300000
O 103.20900000 153.07500000 166.02600000
O 103.20900000 157.48500000 160.20000000
O 103.20900000 161.89200000 154.37100000
O 103.20900000 166.30200000 148.54200000
O 103.20900000 166.30200000 151.45800000
O 103.20900000 157.48500000 163.11300000
O 103.20900000 161.89200000 157.28400000
O 103.20900000 166.30200000 154.37100000
O 103.20900000 161.89200000 160.20000000
O 104.94900000 133.69800000 145.62900000
O 104.94900000 142.51500000 136.88700000
O 104.94900000 133.69800000 148.54200000
O 104.94900000 133.69800000 151.45800000
O 104.94900000 138.10800000 139.80000000
O 104.94900000 138.10800000 142.71600000
O 104.94900000 138.10800000 145.62900000
O 104.94900000 142.51500000 139.80000000
O 104.94900000 142.51500000 142.71600000
O 104.94900000 142.51500000 145.62900000
O 104.94900000 146.92500000 133.97400000
O 104.94900000 146.92500000 136.88700000
O 104.94900000 133.69800000 154.37100000
O 104.94900000 138.10800000 148.54200000
O 104.94900000 138.10800000 151.45800000
O 104.94900000 142.51500000 148.54200000
O 104.94900000 142.51500000 151.45800000
O 104.94900000 146.92500000 139.80000000
O 104.94900000 146.92500000 142.71600000
O 104.94900000 146.92500000 145.62900000
O 104.94900000 151.33500000 133.97400000
O 104.94900000 151.33500000 136.88700000
O 104.94900000 155.74500000 136.88700000
O 104.94900000 138.10800000 154.37100000
O 104.94900000 138.10800000 157.28400000
O 104.94900000 138.10800000 160.20000000
O 104.94900000 142.51500000 154.37100000
O 104.94900000 142.51500000 157.28400000
O 104.94900000 142.51500000 160.20000000
O 104.94900000 146.92500000 148.54200000
O 104.94900000 146.92500000 151.45800000
O 104.94900000 151.33500000 139.80000000
O 104.94900000 151.33500000 142.71600000
O 104.94900000 151.33500000 145.62900000
O 104.94900000 155.74500000 139.80000000
O 104.94900000 155.74500000 142.71600000
O 104.94900000 155.74500000 145.62900000
O 104.94900000 160.15200000 136.88700000
O 104.94900000 142.51500000 163.11300000
O 104.94900000 146.92500000 154.37100000
O 104.94900000 146.92500000 157.28400000
O 104.94900000 146.92500000 160.20000000
O 104.94900000 151.33500000 148.54200000
O 104.94900000 151.33500000 151.45800000
O 104.94900000 155.74500000 148.54200000
O 104.94900000 155.74500000 151.45800000
O 104.94900000 160.15200000 139.80000000
O 104.94900000 160.15200000 142.71600000
O 104.94900000 160.15200000 145.62900000
O 104.94900000 164.56200000 142.71600000
O 104.94900000 164.56200000 145.62900000
O 104.94900000 146.92500000 163.11300000
O 104.94900000 146.92500000 166.02600000
O 104.94900000 151.33500000 154.37100000
O 104.94900000 151.33500000 157.28400000
O 104.94900000 151.33500000 160.20000000
O 104.94900000 155.74500000 154.37100000
O 104.94900000 155.74500000 157.28400000
O 104.94900000 155.74500000 160.20000000
O 104.94900000 160.15200000 148.54200000
O 104.94900000 160.15200000 151.45800000
O 104.94900000 164.56200000 148.54200000
O 104.94900000 164.56200000 151.45800000
O 104.94900000 151.33500000 163.11300000
O 104.94900000 151.33500000 166.02600000
O 104.94900000 155.74500000 163.11300000
O 104.94900000 160.15200000 154.37100000
O 104.94900000 160.15200000 157.28400000
O 104.94900000 160.15200000 160.20000000
O 104.94900000 164.56200000 154.37100000
O 104.94900000 164.56200000 157.28400000
O 104.94900000 160.15200000 163.11300000
O 105.41400000 140.31300000 138.34500000
O 105.41400000 135.90300000 141.25800000
O 105.41400000 135.90300000 144.17100000
O 105.41400000 140.31300000 141.25800000
O 105.41400000 140.31300000 144.17100000
O 105.41400000 144.72000000 135.42900000
O 105.41400000 144.72000000 138.34500000
O 105.41400000 149.13000000 135.42900000
O 105.41400000 149.13000000 138.34500000
O 105.41400000 135.90300000 147.08700000
O 105.41400000 135.90300000 150.00000000
O 105.41400000 135.90300000 152.91300000
O 105.41400000 140.31300000 147.08700000
O 105.41400000 140.31300000 150.00000000
O 105.41400000 140.31300000 152.91300000
O 105.41400000 144.72000000 141.25800000
O 105.41400000 144.72000000 144.17100000
O 105.41400000 149.13000000 141.25800000
O 105.41400000 149.13000000 144.17100000
O 105.41400000 153.54000000 135.42900000
O 105.41400000 153.54000000 138.34500000
O 105.41400000 135.90300000 155.82900000
O 105.41400000 135.90300000 158.74200000
O 105.41400000 140.31300000 155.82900000
O 105.41400000 140.31300000 158.74200000
O 105.41400000 144.72000000 147.08700000
O 105.41400000 144.72000000 150.00000000
O 105.41400000 144.72000000 152.91300000
O 105.41400000 149.13000000 147.08700000
O 105.41400000 149.13000000 150.00000000
O 105.41400000 149.13000000 152.91300000
O 105.41400000 153.54000000 141.25800000
O 105.41400000 153.54000000 144.17100000
O 105.41400000 157.95000000 135.42900000
O 105.41400000 157.95000000 138.34500000
O 105.41400000 140.31300000 161.65500000
O 105.41400000 144.72000000 155.82900000
O 105.41400000 144.72000000 158.74200000
O 105.41400000 149.13000000 155.82900000
O 105.41400000 149.13000000 158.74200000
O 105.41400000 153.54000000 147.08700000
O 105.41400000 153.54000000 150.00000000
O 105.41400000 153.54000000 152.91300000
O 105.41400000 157.95000000 141.25800000
O 105.41400000 157.95000000 144.17100000
O 105.41400000 162.35700000 141.25800000
O 105.41400000 162.35700000 144.17100000
O 105.41400000 144.72000000 161.65500000
O 105.41400000 144.72000000 164.56800000
O 105.41400000 149.13000000 161.65500000
O 105.41400000 149.13000000 164.56800000
O 105.41400000 153.54000000 155.82900000
O 105.41400000 153.54000000 158.74200000
O 105.41400000 157.95000000 147.08700000
O 105.41400000 157.95000000 150.00000000
O 105.41400000 157.95000000 152.91300000
O 105.41400000 162.35700000 147.08700000
O 105.41400000 162.35700000 150.00000000
O 105.41400000 162.35700000 152.91300000
O 105.41400000 153.54000000 161.65500000
O 105.41400000 153.54000000 164.56800000
O 105.41400000 157.95000000 155.82900000
O 105.41400000 157.95000000 158.74200000
O 105.41400000 162.35700000 155.82900000
O 105.41400000 162.35700000 158.74200000
O 105.41400000 166.76700000 150.00000000
O 105.41400000 157.95000000 161.65500000
O 105.41400000 157.95000000 164.56800000
O 107.15400000 137.64300000 141.25800000
O 107.15400000 137.64300000 144.17100000
O 107.15400000 137.64300000 147.08700000
O 107.15400000 137.64300000 150.00000000
O 107.15400000 137.64300000 152.91300000
O 107.15400000 137.64300000 155.82900000
O 107.15400000 142.05000000 138.34500000
O 107.15400000 142.05000000 141.25800000
O 107.15400000 146.46000000 135.42900000
O 107.15400000 146.46000000 138.34500000
O 107.15400000 146.46000000 141.25800000
O 107.15400000 150.87000000 135.42900000
O 107.15400000 150.87000000 138.34500000
O 107.15400000 150.87000000 141.25800000
O 107.15400000 137.64300000 158.74200000
O 107.15400000 142.05000000 144.17100000
O 107.15400000 142.05000000 147.08700000
O 107.15400000 142.05000000 150.00000000
O 107.15400000 142.05000000 152.91300000
O 107.15400000 142.05000000 155.82900000
O 107.15400000 146.46000000 144.17100000
O 107.15400000 146.46000000 147.08700000
O 107.15400000 146.46000000 150.00000000
O 107.15400000 146.46000000 152.91300000
O 107.15400000 146.46000000 155.82900000
O 107.15400000 150.87000000 144.17100000
O 107.15400000 150.87000000 147.08700000
O 107.15400000 150.87000000 150.00000000
O 107.15400000 150.87000000 152.91300000
O 107.15400000 150.87000000 155.82900000
O 107.15400000 155.28000000 135.42900000
O 107.15400000 155.28000000 138.34500000
O 107.15400000 155.28000000 141.25800000
O 107.15400000 159.68700000 138.34500000
O 107.15400000 159.68700000 141.25800000
O 107.15400000 142.05000000 158.74200000
O 107.15400000 142.05000000 161.65500000
O 107.15400000 146.46000000 158.74200000
O 107.15400000 146.46000000 161.65500000
O 107.15400000 146.46000000 164.56800000
O 107.15400000 150.87000000 158.74200000
O 107.15400000 150.87000000 161.65500000
O 107.15400000 150.87000000 164.56800000
O 107.15400000 155.28000000 144.17100000
O 107.15400000 155.28000000 147.08700000
O 107.15400000 155.28000000 150.00000000
O 107.15400000 155.28000000 152.91300000
O 107.15400000 155.28000000 155.82900000
O 107.15400000 159.68700000 144.17100000
O 107.15400000 159.68700000 147.08700000
O 107.15400000 159.68700000 150.00000000
O 107.15400000 159.68700000 152.91300000
O 107.15400000 159.68700000 155.82900000
O 107.15400000 164.09700000 144.17100000
O 107.15400000 164.09700000 147.08700000
O 107.15400000 164.09700000 150.00000000
O 107.15400000 164.09700000 152.91300000
O 107.15400000 164.09700000 155.82900000
O 107.15400000 155.28000000 158.74200000
O 107.15400000 155.28000000 161.65500000
O 107.15400000 155.28000000 164.56800000
O 107.15400000 159.68700000 158.74200000
O 107.15400000 159.68700000 161.65500000
O 107.61900000 139.84800000 139.80000000
O 107.61900000 139.84800000 142.71600000
O 107.61900000 144.25500000 136.88700000
O 107.61900000 144.25500000 139.80000000
O 107.61900000 144.25500000 142.71600000
O 107.61900000 135.43800000 145.62900000
O 107.61900000 135.43800000 148.54200000
O 107.61900000 135.43800000 151.45800000
O 107.61900000 135.43800000 154.37100000
O 107.61900000 139.84800000 145.62900000
O 107.61900000 139.84800000 148.54200000
O 107.61900000 139.84800000 151.45800000
O 107.61900000 139.84800000 154.37100000
O 107.61900000 144.25500000 145.62900000
O 107.61900000 144.25500000 148.54200000
O 107.61900000 144.25500000 151.45800000
O 107.61900000 144.25500000 154.37100000
O 107.61900000 148.66500000 133.97400000
O 107.61900000 148.66500000 136.88700000
O 107.61900000 148.66500000 139.80000000
O 107.61900000 148.66500000 142.71600000
O 107.61900000 153.07500000 136.88700000
O 107.61900000 153.07500000 139.80000000
O 107.61900000 153.07500000 142.71600000
O 107.61900000 157.48500000 136.88700000
O 107.61900000 157.48500000 139.80000000
O 107.61900000 157.48500000 142.71600000
O 107.61900000 139.84800000 157.28400000
O 107.61900000 139.84800000 160.20000000
O 107.61900000 144.25500000 157.28400000
O 107.61900000 144.25500000 160.20000000
O 107.61900000 144.25500000 163.11300000
O 107.61900000 148.66500000 145.62900000
O 107.61900000 148.66500000 148.54200000
O 107.61900000 148.66500000 151.45800000
O 107.61900000 148.66500000 154.37100000
O 107.61900000 153.07500000 145.62900000
O 107.61900000 153.07500000 148.54200000
O 107.61900000 153.07500000 151.45800000
O 107.61900000 153.07500000 154.37100000
O 107.61900000 157.48500000 145.62900000
O 107.61900000 157.48500000 148.54200000
O 107.61900000 157.48500000 151.45800000
O 107.61900000 157.48500000 154.37100000
O 107.61900000 161.89200000 139.80000000
O 107.61900000 161.89200000 142.71600000
O 107.61900000 148.66500000 157.28400000
O 107.61900000 148.66500000 160.20000000
O 107.61900000 148.66500000 163.11300000
O 107.61900000 148.66500000 166.02600000
O 107.61900000 153.07500000 157.28400000
O 107.61900000 153.07500000 160.20000000
O 107.61900000 153.07500000 163.11300000
O 107.61900000 157.48500000 157.28400000
O 107.61900000 157.48500000 160.20000000
O 107.61900000 157.48500000 163.11300000
O 107.61900000 161.89200000 145.62900000
O 107.61900000 161.89200000 148.54200000
O 107.61900000 161.89200000 151.45800000
O 107.61900000 161.89200000 154.37100000
O 107.61900000 161.89200000 157.28400000
O 107.61900000 161.89200000 160.20000000
O 109.35900000 138.10800000 142.71600000
O 109.35900000 138.10800000 145.62900000
O 109.35900000 138.10800000 148.54200000
O 109.35900000 138.10800000 151.45800000
O 109.35900000 138.10800000 154.37100000
O 109.35900000 142.51500000 136.88700000
O 109.35900000 142.51500000 139.80000000
O 109.35900000 142.51500000 142.71600000
O 109.35900000 146.92500000 136.88700000
O 109.35900000 146.92500000 139.80000000
O 109.35900000 146.92500000 142.71600000
O 109.35900000 151.33500000 136.88700000
O 109.35900000 151.33500000 139.80000000
O 109.35900000 151.33500000 142.71600000
O 109.35900000 138.10800000 157.28400000
O 109.35900000 142.51500000 145.62900000
O 109.35900000 142.51500000 148.54200000
O 109.35900000 142.51500000 151.45800000
O 109.35900000 142.51500000 154.37100000
O 109.35900000 146.92500000 145.62900000
O 109.35900000 146.92500000 148.54200000
O 109.35900000 146.92500000 151.45800000
O 109.35900000 146.92500000 154.37100000
O 109.35900000 151.33500000 145.62900000
O 109.35900000 151.33500000 148.54200000
O 109.35900000 151.33500000 151.45800000
O 109.35900000 151.33500000 154.37100000
O 109.35900000 155.74500000 136.88700000
O 109.35900000 155.74500000 139.80000000
O 109.35900000 155.74500000 142.71600000
O 109.35900000 160.15200000 139.80000000
O 109.35900000 160.15200000 142.71600000
O 109.35900000 142.51500000 157.28400000
O 109.35900000 142.51500000 160.20000000
O 109.35900000 142.51500000 163.11300000
O 109.35900000 146.92500000 157.28400000
O 109.35900000 146.92500000 160.20000000
O 109.35900000 146.92500000 163.11300000
O 109.35900000 151.33500000 157.28400000
O 109.35900000 151.33500000 160.20000000
O 109.35900000 151.33500000 163.11300000
O 109.35900000 155.74500000 145.62900000
O 109.35900000 155.74500000 148.54200000
O 109.35900000 155.74500000 151.45800000
O 109.35900000 155.74500000 154.37100000
O 109.35900000 160.15200000 145.62900000
O 109.35900000 160.15200000 148.54200000
O 109.35900000 160.15200000 151.45800000
O 109.35900000 160.15200000 154.37100000
O 109.35900000 164.56200000 145.62900000
O 109.35900000 164.56200000 148.54200000
O 109.35900000 164.56200000 151.45800000
O 109.35900000 164.56200000 154.37100000
O 109.35900000 155.74500000 157.28400000
O 109.35900000 155.74500000 160.20000000
O 109.35900000 155.74500000 163.11300000
O 109.35900000 160.15200000 157.28400000
O 109.35900000 160.15200000 160.20000000
O 109.82400000 140.31300000 138.34500000
O 109.82400000 140.31300000 141.25800000
O 109.82400000 144.72000000 138.34500000
O 109.82400000 144.72000000 141.25800000
O 109.82400000 135.90300000 147.08700000
O 109.82400000 135.90300000 150.00000000
O 109.82400000 135.90300000 152.91300000
O 109.82400000 140.31300000 144.17100000
O 109.82400000 140.31300000 147.08700000
O 109.82400000 140.31300000 150.00000000
O 109.82400000 140.31300000 152.91300000
O 109.82400000 140.31300000 155.82900000
O 109.82400000 144.72000000 144.17100000
O 109.82400000 144.72000000 147.08700000
O 109.82400000 144.72000000 150.00000000
O 109.82400000 144.72000000 152.91300000
O 109.82400000 144.72000000 155.82900000
O 109.82400000 149.13000000 135.42900000
O 109.82400000 149.13000000 138.34500000
O 109.82400000 149.13000000 141.25800000
O 109.82400000 153.54000000 135.42900000
O 109.82400000 153.54000000 138.34500000
O 109.82400000 153.54000000 141.25800000
O 109.82400000 157.95000000 138.34500000
O 109.82400000 157.95000000 141.25800000
O 109.82400000 140.31300000 158.74200000
O 109.82400000 140.31300000 161.65500000
O 109.82400000 144.72000000 158.74200000
O 109.82400000 144.72000000 161.65500000
O 109.82400000 149.13000000 144.17100000
O 109.82400000 149.13000000 147.08700000
O 109.82400000 149.13000000 150.00000000
O 109.82400000 149.13000000 152.91300000
O 109.82400000 149.13000000 155.82900000
O 109.82400000 153.54000000 144.17100000
O 109.82400000 153.54000000 147.08700000
O 109.82400000 153.54000000 150.00000000
O 109.82400000 153.54000000 152.91300000
O 109.82400000 153.54000000 155.82900000
O 109.82400000 157.95000000 144.17100000
O 109.82400000 157.95000000 147.08700000
O 109.82400000 157.95000000 150.00000000
O 109.82400000 157.95000000 152.91300000
O 109.82400000 157.95000000 155.82900000
O 109.82400000 162.35700000 141.25800000
O 109.82400000 149.13000000 158.74200000
O 109.82400000 149.13000000 161.65500000
O 109.82400000 149.13000000 164.56800000
O 109.82400000 153.54000000 158.74200000
O 109.82400000 153.54000000 161.65500000
O 109.82400000 153.54000000 164.56800000
O 109.82400000 157.95000000 158.74200000
O 109.82400000 157.95000000 161.65500000
O 109.82400000 162.35700000 144.17100000
O 109.82400000 162.35700000 147.08700000
O 109.82400000 162.35700000 150.00000000
O 109.82400000 162.35700000 152.91300000
O 109.82400000 162.35700000 155.82900000
O 109.82400000 162.35700000 158.74200000
O 111.56400000 137.64300000 144.17100000
O 111.56400000 137.64300000 147.08700000
O 111.56400000 137.64300000 150.00000000
O 111.56400000 137.64300000 152.91300000
O 111.56400000 137.64300000 155.82900000
O 111.56400000 142.05000000 138.34500000
O 111.56400000 142.05000000 141.25800000
O 111.56400000 142.05000000 144.17100000
O 111.56400000 142.05000000 147.08700000
O 111.56400000 142.05000000 150.00000000
O 111.56400000 142.05000000 152.91300000
O 111.56400000 142.05000000 155.82900000
O 111.56400000 142.05000000 158.74200000
O 111.56400000 142.05000000 161.65500000
O 111.56400000 146.46000000 138.34500000
O 111.56400000 146.46000000 141.25800000
O 111.56400000 146.46000000 144.17100000
O 111.56400000 146.46000000 147.08700000
O 111.56400000 146.46000000 150.00000000
O 111.56400000 146.46000000 152.91300000
O 111.56400000 146.46000000 155.82900000
O 111.56400000 146.46000000 158.74200000
O 111.56400000 146.46000000 161.65500000
O 111.56400000 150.87000000 138.34500000
O 111.56400000 150.87000000 141.25800000
O 111.56400000 150.87000000 144.17100000
O 111.56400000 150.87000000 147.08700000
O 111.56400000 150.87000000 150.00000000
O 111.56400000 150.87000000 152.91300000
O 111.56400000 150.87000000 155.82900000
O 111.56400000 150.87000000 158.74200000
O 111.56400000 150.87000000 161.65500000
O 111.56400000 155.28000000 138.34500000
O 111.56400000 155.28000000 141.25800000
O 111.56400000 155.28000000 144.17100000
O 111.56400000 155.28000000 147.08700000
O 111.56400000 155.28000000 150.00000000
O 111.56400000 155.28000000 152.91300000
O 111.56400000 155.28000000 155.82900000
O 111.56400000 155.28000000 158.74200000
O 111.56400000 155.28000000 161.65500000
O 111.56400000 159.68700000 141.25800000
O 111.56400000 159.68700000 144.17100000
O 111.56400000 159.68700000 147.08700000
O 111.56400000 159.68700000 150.00000000
O 111.56400000 159.68700000 152.91300000
O 111.56400000 159.68700000 155.82900000
O 111.56400000 159.68700000 158.74200000
O 111.56400000 164.09700000 150.00000000
O 112.02900000 139.84800000 142.71600000
O 112.02900000 139.84800000 145.62900000
O 112.02900000 139.84800000 148.54200000
O 112.02900000 139.84800000 151.45800000
O 112.02900000 139.84800000 154.37100000
O 112.02900000 139.84800000 157.28400000
O 112.02900000 144.25500000 139.80000000
O 112.02900000 144.25500000 142.71600000
O 112.02900000 144.25500000 145.62900000
O 112.02900000 144.25500000 148.54200000
O 112.02900000 144.25500000 151.45800000
O 112.02900000 144.25500000 154.37100000
O 112.02900000 144.25500000 157.28400000
O 112.02900000 144.25500000 160.20000000
O 112.02900000 148.66500000 136.88700000
O 112.02900000 148.66500000 139.80000000
O 112.02900000 148.66500000 142.71600000
O 112.02900000 148.66500000 145.62900000
O 112.02900000 148.66500000 148.54200000
O 112.02900000 148.66500000 151.45800000
O 112.02900000 148.66500000 154.37100000
O 112.02900000 148.66500000 157.28400000
O 112.02900000 148.66500000 160.20000000
O 112.02900000 148.66500000 163.11300000
O 112.02900000 153.07500000 136.88700000
O 112.02900000 153.07500000 139.80000000
O 112.02900000 153.07500000 142.71600000
O 112.02900000 153.07500000 145.62900000
O 112.02900000 153.07500000 148.54200000
O 112.02900000 153.07500000 151.45800000
O 112.02900000 153.07500000 154.37100000
O 112.02900000 153.07500000 157.28400000
O 112.02900000 153.07500000 160.20000000
O 112.02900000 153.07500000 163.11300000
O 112.02900000 157.48500000 139.80000000
O 112.02900000 157.48500000 142.71600000
O 112.02900000 157.48500000 145.62900000
O 112.02900000 157.48500000 148.54200000
O 112.02900000 157.48500000 151.45800000
O 112.02900000 157.48500000 154.37100000
O 112.02900000 157.48500000 157.28400000
O 112.02900000 157.48500000 160.20000000
O 112.02900000 161.89200000 145.62900000
O 112.02900000 161.89200000 148.54200000
O 112.02900000 161.89200000 151.45800000
O 112.02900000 161.89200000 154.37100000
O 113.76900000 138.10800000 148.54200000
O 113.76900000 138.10800000 151.45800000
O 113.76900000 142.51500000 142.71600000
O 113.76900000 142.51500000 145.62900000
O 113.76900000 142.51500000 148.54200000
O 113.76900000 142.51500000 151.45800000
O 113.76900000 142.51500000 154.37100000
O 113.76900000 142.51500000 157.28400000
O 113.76900000 146.92500000 139.80000000
O 113.76900000 146.92500000 142.71600000
O 113.76900000 146.92500000 145.62900000
O 113.76900000 146.92500000 148.54200000
O 113.76900000 146.92500000 151.45800000
O 113.76900000 146.92500000 154.37100000
O 113.76900000 146.92500000 157.28400000
O 113.76900000 146.92500000 160.20000000
O 113.76900000 151.33500000 139.80000000
O 113.76900000 151.33500000 142.71600000
O 113.76900000 151.33500000 145.62900000
O 113.76900000 151.33500000 148.54200000
O 113.76900000 151.33500000 151.45800000
O 113.76900000 151.33500000 154.37100000
O 113.76900000 151.33500000 157.28400000
O 113.76900000 151.33500000 160.20000000
O 113.76900000 155.74500000 139.80000000
O 113.76900000 155.74500000 142.71600000
O 113.76900000 155.74500000 145.62900000
O 113.76900000 155.74500000 148.54200000
O 113.76900000 155.74500000 151.45800000
O 113.76900000 155.74500000 154.37100000
O 113.76900000 155.74500000 157.28400000
O 113.76900000 155.74500000 160.20000000
O 113.76900000 160.15200000 145.62900000
O 113.76900000 160.15200000 148.54200000
O 113.76900000 160.15200000 151.45800000
O 113.76900000 160.15200000 154.37100000
O 114.23400000 140.31300000 144.17100000
O 114.23400000 140.31300000 147.08700000
O 114.23400000 140.31300000 150.00000000
O 114.23400000 140.31300000 152.91300000
O 114.23400000 140.31300000 155.82900000
O 114.23400000 144.72000000 141.25800000
O 114.23400000 144.72000000 144.17100000
O 114.23400000 144.72000000 147.08700000
O 114.23400000 144.72000000 150.00000000
O 114.23400000 144.72000000 152.91300000
O 114.23400000 144.72000000 155.82900000
O 114.23400000 144.72000000 158.74200000
O 114.23400000 149.13000000 138.34500000
O 114.23400000 149.13000000 141.25800000
O 114.23400000 149.13000000 144.17100000
O 114.23400000 149.13000000 147.08700000
O 114.23400000 149.13000000 150.00000000
O 114.23400000 149.13000000 152.91300000
O 114.23400000 149.13000000 155.82900000
O 114.23400000 149.13000000 158.74200000
O 114.23400000 149.13000000 161.65500000
O 114.23400000 153.54000000 141.25800000
O 114.23400000 153.54000000 144.17100000
O 114.23400000 153.54000000 147.08700000
O 114.23400000 153.54000000 150.00000000
O 114.23400000 153.54000000 152.91300000
O 114.23400000 153.54000000 155.82900000
O 114.23400000 153.54000000 158.74200000
O 114.23400000 157.95000000 141.25800000
O 114.23400000 157.95000000 144.17100000
O 114.23400000 157.95000000 147.08700000
O 114.23400000 157.95000000 150.00000000
O 114.23400000 157.95000000 152.91300000
O 114.23400000 157.95000000 155.82900000
O 114.23400000 157.95000000 158.74200000
O 115.97100000 142.05000000 147.08700000
O 115.97100000 142.05000000 150.00000000
O 115.97100000 142.05000000 152.91300000
O 115.97100000 146.46000000 141.25800000
O 115.97100000 146.46000000 144.17100000
O 115.97100000 146.46000000 147.08700000
O 115.97100000 146.46000000 150.00000000
O 115.97100000 146.46000000 152.91300000
O 115.97100000 146.46000000 155.82900000
O 115.97100000 146.46000000 158.74200000
O 115.97100000 150.87000000 141.25800000
O 115.97100000 150.87000000 144.17100000
O 115.97100000 150.87000000 147.08700000
O 115.97100000 150.87000000 150.00000000
O 115.97100000 150.87000000 152.91300000
O 115.97100000 150.87000000 155.82900000
O 115.97100000 150.87000000 158.74200000
O 115.97100000 155.28000000 144.17100000
O 115.97100000 155.28000000 147.08700000
O 115.97100000 155.28000000 150.00000000
O 115.97100000 155.28000000 152.91300000
O 115.97100000 155.28000000 155.82900000
O 115.97100000 159.68700000 150.00000000
O 116.43600000 144.25500000 145.62900000
O 116.43600000 144.25500000 148.54200000
O 116.43600000 144.25500000 151.45800000
O 116.43600000 144.25500000 154.37100000
O 116.43600000 148.66500000 142.71600000
O 116.43600000 148.66500000 145.62900000
O 116.43600000 148.66500000 148.54200000
O 116.43600000 148.66500000 151.45800000
O 116.43600000 148.66500000 154.37100000
O 116.43600000 148.66500000 157.28400000
O 116.43600000 153.07500000 142.71600000
O 116.43600000 153.07500000 145.62900000
O 116.43600000 153.07500000 148.54200000
O 116.43600000 153.07500000 151.45800000
O 116.43600000 153.07500000 154.37100000
O 116.43600000 153.07500000 157.28400000
O 116.43600000 157.48500000 145.62900000
O 116.43600000 157.48500000 148.54200000
O 116.43600000 157.48500000 151.45800000
O 116.43600000 157.48500000 154.37100000
O 118.17600000 146.92500000 145.62900000
O 118.17600000 146.92500000 148.54200000
O 118.17600000 146.92500000 151.45800000
O 118.17600000 146.92500000 154.37100000
O 118.17600000 151.33500000 145.62900000
O 118.17600000 151.33500000 148.54200000
O 118.17600000 151.33500000 151.45800000
O 118.17600000 151.33500000 154.37100000
O 118.64100000 149.13000000 147.08700000
O 118.64100000 149.13000000 150.00000000
O 118.64100000 149.13000000 152.91300000
O 118.64100000 153.54000000 150.00000000
O 132.87900000 102.68400000 149.61000000
O 132.87900000 102.68400000 152.72100000
O 134.62200000 95.46300000 146.49900000
O 134.62200000 95.46300000 149.61000000
O 134.62200000 95.46300000 152.72100000
O 134.62200000 99.94500000 143.38800000
O 134.62200000 99.94500000 146.49900000
O 134.62200000 99.94500000 149.61000000
O 134.62200000 99.94500000 152.72100000
O 134.62200000 99.94500000 155.83500000
O 134.62200000 104.42700000 143.38800000
O 134.62200000 104.42700000 146.49900000
O 134.62200000 104.42700000 149.61000000
O 134.62200000 104.42700000 152.72100000
O 134.62200000 104.42700000 155.83500000
O 134.62200000 108.90900000 146.49900000
O 134.62200000 108.90900000 149.61000000
O 134.62200000 108.90900000 152.72100000
O 135.12000000 93.22200000 148.05600000
O 135.12000000 93.22200000 151.16700000
O 135.12000000 97.70400000 144.94500000
O 135.12000000 97.70400000 148.05600000
O 135.12000000 97.70400000 151.16700000
O 135.12000000 97.70400000 154.27800000
O 135.12000000 97.70400000 157.38900000
O 135.12000000 102.18600000 141.83400000
O 135.12000000 102.18600000 144.94500000
O 135.12000000 102.18600000 148.05600000
O 135.12000000 102.18600000 151.16700000
O 135.12000000 102.18600000 154.27800000
O 135.12000000 102.18600000 157.38900000
O 135.12000000 106.66800000 144.94500000
O 135.12000000 106.66800000 148.05600000
O 135.12000000 106.66800000 151.16700000
O 135.12000000 106.66800000 154.27800000
O 135.12000000 106.66800000 157.38900000
O 136.86300000 91.47600000 148.05600000
O 136.86300000 91.47600000 151.16700000
O 136.86300000 91.47600000 154.27800000
O 136.86300000 95.96100000 141.83400000
O 136.86300000 95.96100000 144.94500000
O 136.86300000 95.96100000 148.05600000
O 136.86300000 95.96100000 151.16700000
O 136.86300000 95.96100000 154.27800000
O 136.86300000 95.96100000 157.38900000
O 136.86300000 100.44300000 141.83400000
O 136.86300000 100.44300000 144.94500000
O 136.86300000 100.44300000 148.05600000
O 136.86300000 100.44300000 151.16700000
O 136.86300000 100.44300000 154.27800000
O 136.86300000 100.44300000 157.38900000
O 136.86300000 100.44300000 160.50000000
O 136.86300000 104.92500000 141.83400000
O 136.86300000 104.92500000 144.94500000
O 136.86300000 104.92500000 148.05600000
O 136.86300000 104.92500000 151.16700000
O 136.86300000 104.92500000 154.27800000
O 136.86300000 104.92500000 157.38900000
O 136.86300000 104.92500000 160.50000000
O 136.86300000 109.40700000 141.83400000
O 136.86300000 109.40700000 144.94500000
O 136.86300000 109.40700000 148.05600000
O 136.86300000 109.40700000 151.16700000
O 136.86300000 109.40700000 154.27800000
O 136.86300000 109.40700000 157.38900000
O 137.36100000 93.72000000 143.38800000
O 137.36100000 93.72000000 146.49900000
O 137.36100000 93.72000000 149.61000000
O 137.36100000 93.72000000 152.72100000
O 137.36100000 93.72000000 155.83500000
O 137.36100000 98.20200000 140.27700000
O 137.36100000 98.20200000 143.38800000
O 137.36100000 98.20200000 146.49900000
O 137.36100000 98.20200000 149.61000000
O 137.36100000 98.20200000 152.72100000
O 137.36100000 98.20200000 155.83500000
O 137.36100000 98.20200000 158.94600000
O 137.36100000 102.68400000 140.27700000
O 137.36100000 102.68400000 143.38800000
O 137.36100000 102.68400000 146.49900000
O 137.36100000 102.68400000 149.61000000
O 137.36100000 102.68400000 152.72100000
O 137.36100000 102.68400000 155.83500000
O 137.36100000 102.68400000 158.94600000
O 137.36100000 107.16600000 140.27700000
O 137.36100000 107.16600000 143.38800000
O 137.36100000 107.16600000 146.49900000
O 137.36100000 107.16600000 149.61000000
O 137.36100000 107.16600000 152.72100000
O 137.36100000 107.16600000 155.83500000
O 137.36100000 107.16600000 158.94600000
O 137.36100000 111.64800000 143.38800000
O 137.36100000 111.64800000 146.49900000
O 137.36100000 111.64800000 149.61000000
O 137.36100000 111.64800000 152.72100000
O 137.36100000 111.64800000 155.83500000
O 139.10700000 90.98100000 143.38800000
O 139.10700000 90.98100000 146.49900000
O 139.10700000 90.98100000 149.61000000
O 139.10700000 90.98100000 152.72100000
O 139.10700000 90.98100000 155.83500000
O 139.10700000 95.46300000 140.27700000
O 139.10700000 95.46300000 143.38800000
O 139.10700000 95.46300000 146.49900000
O 139.10700000 95.46300000 149.61000000
O 139.10700000 95.46300000 152.72100000
O 139.10700000 95.46300000 155.83500000
O 139.10700000 95.46300000 158.94600000
O 139.10700000 99.94500000 137.16600000
O 139.10700000 99.94500000 140.27700000
O 139.10700000 99.94500000 143.38800000
O 139.10700000 99.94500000 146.49900000
O 139.10700000 99.94500000 149.61000000
O 139.10700000 99.94500000 152.72100000
O 139.10700000 99.94500000 155.83500000
O 139.10700000 99.94500000 158.94600000
O 139.10700000 99.94500000 162.05700000
O 139.10700000 104.42700000 137.16600000
O 139.10700000 104.42700000 140.27700000
O 139.10700000 104.42700000 143.38800000
O 139.10700000 104.42700000 146.49900000
O 139.10700000 104.42700000 149.61000000
O 139.10700000 104.42700000 152.72100000
O 139.10700000 104.42700000 155.83500000
O 139.10700000 104.42700000 158.94600000
O 139.10700000 104.42700000 162.05700000
O 139.10700000 108.90900000 140.27700000
O 139.10700000 108.90900000 143.38800000
O 139.10700000 108.90900000 146.49900000
O 139.10700000 108.90900000 149.61000000
O 139.10700000 108.90900000 152.72100000
O 139.10700000 108.90900000 155.83500000
O 139.10700000 108.90900000 158.94600000
O 139.10700000 113.39400000 143.38800000
O 139.10700000 113.39400000 146.49900000
O 139.10700000 113.39400000 149.61000000
O 139.10700000 113.39400000 152.72100000
O 139.10700000 113.39400000 155.83500000
O 139.60200000 88.74000000 148.05600000
O 139.60200000 88.74000000 151.16700000
O 139.60200000 88.74000000 154.27800000
O 139.60200000 93.22200000 141.83400000
O 139.60200000 93.22200000 144.94500000
O 139.60200000 93.22200000 148.05600000
O 139.60200000 93.22200000 151.16700000
O 139.60200000 93.22200000 154.27800000
O 139.60200000 93.22200000 157.38900000
O 139.60200000 93.22200000 160.50000000
O 139.60200000 97.70400000 138.72300000
O 139.60200000 97.70400000 141.83400000
O 139.60200000 97.70400000 144.94500000
O 139.60200000 97.70400000 148.05600000
O 139.60200000 97.70400000 151.16700000
O 139.60200000 97.70400000 154.27800000
O 139.60200000 97.70400000 157.38900000
O 139.60200000 97.70400000 160.50000000
O 139.60200000 102.18600000 138.72300000
O 139.60200000 102.18600000 141.83400000
O 139.60200000 102.18600000 144.94500000
O 139.60200000 102.18600000 148.05600000
O 139.60200000 102.18600000 151.16700000
O 139.60200000 102.18600000 154.27800000
O 139.60200000 102.18600000 157.38900000
O 139.60200000 102.18600000 160.50000000
O 139.60200000 102.18600000 163.61100000
O 139.60200000 106.66800000 138.72300000
O 139.60200000 106.66800000 141.83400000
O 139.60200000 106.66800000 144.94500000
O 139.60200000 106.66800000 148.05600000
O 139.60200000 106.66800000 151.16700000
O 139.60200000 106.66800000 154.27800000
O 139.60200000 106.66800000 157.38900000
O 139.60200000 106.66800000 160.50000000
O 139.60200000 111.15300000 141.83400000
O 139.60200000 111.15300000 144.94500000
O 139.60200000 111.15300000 148.05600000
O 139.60200000 111.15300000 151.16700000
O 139.60200000 111.15300000 154.27800000
O 139.60200000 111.15300000 157.38900000
O 139.60200000 115.63500000 148.05600000
O 139.60200000 115.63500000 151.16700000
O 141.34800000 86.99400000 148.05600000
O 141.34800000 86.99400000 151.16700000
O 141.34800000 91.47600000 141.83400000
O 141.34800000 91.47600000 144.94500000
O 141.34800000 91.47600000 148.05600000
O 141.34800000 91.47600000 151.16700000
O 141.34800000 91.47600000 154.27800000
O 141.34800000 91.47600000 157.38900000
O 141.34800000 91.47600000 160.50000000
O 141.34800000 95.96100000 138.72300000
O 141.34800000 95.96100000 141.83400000
O 141.34800000 95.96100000 144.94500000
O 141.34800000 95.96100000 148.05600000
O 141.34800000 95.96100000 151.16700000
O 141.34800000 95.96100000 154.27800000
O 141.34800000 95.96100000 157.38900000
O 141.34800000 95.96100000 160.50000000
O 141.34800000 95.96100000 163.61100000
O 141.34800000 100.44300000 135.60900000
O 141.34800000 100.44300000 138.72300000
O 141.34800000 100.44300000 141.83400000
O 141.34800000 100.44300000 144.94500000
O 141.34800000 100.44300000 148.05600000
O 141.34800000 100.44300000 151.16700000
O 141.34800000 100.44300000 154.27800000
O 141.34800000 100.44300000 157.38900000
O 141.34800000 100.44300000 160.50000000
O 141.34800000 100.44300000 163.61100000
O 141.34800000 104.92500000 135.60900000
O 141.34800000 104.92500000 138.72300000
O 141.34800000 104.92500000 141.83400000
O 141.34800000 104.92500000 144.94500000
O 141.34800000 104.92500000 148.05600000
O 141.34800000 104.92500000 151.16700000
O 141.34800000 104.92500000 154.27800000
O 141.34800000 104.92500000 157.38900000
O 141.34800000 104.92500000 160.50000000
O 141.34800000 104.92500000 163.61100000
O 141.34800000 109.40700000 138.72300000
O 141.34800000 109.40700000 141.83400000
O 141.34800000 109.40700000 144.94500000
O 141.34800000 109.40700000 148.05600000
O 141.34800000 109.40700000 151.16700000
O 141.34800000 109.40700000 154.27800000
O 141.34800000 109.40700000 157.38900000
O 141.34800000 109.40700000 160.50000000
O 141.34800000 113.88900000 141.83400000
O 141.34800000 113.88900000 144.94500000
O 141.34800000 113.88900000 148.05600000
O 141.34800000 113.88900000 151.16700000
O 141.34800000 113.88900000 154.27800000
O 141.34800000 113.88900000 157.38900000
O 141.84300000 89.23500000 143.38800000
O 141.84300000 89.23500000 146.49900000
O 141.84300000 89.23500000 149.61000000
O 141.84300000 89.23500000 152.72100000
O 141.84300000 89.23500000 155.83500000
O 141.84300000 93.72000000 137.16600000
O 141.84300000 93.72000000 140.27700000
O 141.84300000 93.72000000 143.38800000
O 141.84300000 93.72000000 146.49900000
O 141.84300000 93.72000000 149.61000000
O 141.84300000 93.72000000 152.72100000
O 141.84300000 93.72000000 155.83500000
O 141.84300000 93.72000000 158.94600000
O 141.84300000 93.72000000 162.05700000
O 141.84300000 98.20200000 137.16600000
O 141.84300000 98.20200000 140.27700000
O 141.84300000 98.20200000 143.38800000
O 141.84300000 98.20200000 146.49900000
O 141.84300000 98.20200000 149.61000000
O 141.84300000 98.20200000 152.72100000
O 141.84300000 98.20200000 155.83500000
O 141.84300000 98.20200000 158.94600000
O 141.84300000 98.20200000 162.05700000
O 141.84300000 102.68400000 137.16600000
O 141.84300000 102.68400000 140.27700000
O 141.84300000 102.68400000 143.38800000
O 141.84300000 102.68400000 146.49900000
O 141.84300000 102.68400000 149.61000000
O 141.84300000 102.68400000 152.72100000
O 141.84300000 102.68400000 155.83500000
O 141.84300000 102.68400000 158.94600000
O 141.84300000 102.68400000 162.05700000
O 141.84300000 107.16600000 137.16600000
O 141.84300000 107.16600000 140.27700000
O 141.84300000 107.16600000 143.38800000
O 141.84300000 107.16600000 146.49900000
O 141.84300000 107.16600000 149.61000000
O 141.84300000 107.16600000 152.72100000
O 141.84300000 107.16600000 155.83500000
O 141.84300000 107.16600000 158.94600000
O 141.84300000 107.16600000 162.05700000
O 141.84300000 102.68400000 165.16800000
O 141.84300000 111.64800000 140.27700000
O 141.84300000 111.64800000 143.38800000
O 141.84300000 111.64800000 146.49900000
O 141.84300000 111.64800000 149.61000000
O 141.84300000 111.64800000 152.72100000
O 141.84300000 111.64800000 155.83500000
O 141.84300000 111.64800000 158.94600000
O 141.84300000 116.13000000 146.49900000
O 141.84300000 116.13000000 149.61000000
O 141.84300000 116.13000000 152.72100000
O 143.58900000 90.98100000 140.27700000
O 143.58900000 86.49900000 146.49900000
O 143.58900000 86.49900000 149.61000000
O 143.58900000 86.49900000 152.72100000
O 143.58900000 90.98100000 143.38800000
O 143.58900000 90.98100000 146.49900000
O 143.58900000 90.98100000 149.61000000
O 143.58900000 90.98100000 152.72100000
O 143.58900000 90.98100000 155.83500000
O 143.58900000 95.46300000 137.16600000
O 143.58900000 95.46300000 140.27700000
O 143.58900000 99.94500000 134.05500000
O 143.58900000 99.94500000 137.16600000
O 143.58900000 99.94500000 140.27700000
O 143.58900000 104.42700000 137.16600000
O 143.58900000 104.42700000 140.27700000
O 143.58900000 108.90900000 137.16600000
O 143.58900000 108.90900000 140.27700000
O 143.58900000 90.98100000 158.94600000
O 143.58900000 95.46300000 143.38800000
O 143.58900000 95.46300000 146.49900000
O 143.58900000 95.46300000 149.61000000
O 143.58900000 95.46300000 152.72100000
O 143.58900000 95.46300000 155.83500000
O 143.58900000 99.94500000 143.38800000
O 143.58900000 99.94500000 146.49900000
O 143.58900000 99.94500000 149.61000000
O 143.58900000 99.94500000 152.72100000
O 143.58900000 99.94500000 155.83500000
O 143.58900000 104.42700000 143.38800000
O 143.58900000 104.42700000 146.49900000
O 143.58900000 104.42700000 149.61000000
O 143.58900000 104.42700000 152.72100000
O 143.58900000 104.42700000 155.83500000
O 143.58900000 108.90900000 143.38800000
O 143.58900000 108.90900000 146.49900000
O 143.58900000 108.90900000 149.61000000
O 143.58900000 108.90900000 152.72100000
O 143.58900000 108.90900000 155.83500000
O 143.58900000 113.39400000 140.27700000
O 143.58900000 95.46300000 158.94600000
O 143.58900000 95.46300000 162.05700000
O 143.58900000 99.94500000 158.94600000
O 143.58900000 99.94500000 162.05700000
O 143.58900000 99.94500000 165.16800000
O 143.58900000 104.42700000 158.94600000
O 143.58900000 104.42700000 162.05700000
O 143.58900000 104.42700000 165.16800000
O 143.58900000 108.90900000 158.94600000
O 143.58900000 108.90900000 162.05700000
O 143.58900000 113.39400000 143.38800000
O 143.58900000 113.39400000 146.49900000
O 143.58900000 113.39400000 149.61000000
O 143.58900000 113.39400000 152.72100000
O 143.58900000 113.39400000 155.83500000
O 143.58900000 117.87600000 149.61000000
O 143.58900000 113.39400000 158.94600000
O 144.08400000 88.74000000 141.83400000
O 144.08400000 93.22200000 138.72300000
O 144.08400000 93.22200000 141.83400000
O 144.08400000 97.70400000 135.60900000
O 144.08400000 97.70400000 138.72300000
O 144.08400000 97.70400000 141.83400000
O 144.08400000 88.74000000 144.94500000
O 144.08400000 88.74000000 148.05600000
O 144.08400000 88.74000000 151.16700000
O 144.08400000 88.74000000 154.27800000
O 144.08400000 93.22200000 144.94500000
O 144.08400000 93.22200000 148.05600000
O 144.08400000 93.22200000 151.16700000
O 144.08400000 93.22200000 154.27800000
O 144.08400000 97.70400000 144.94500000
O 144.08400000 97.70400000 148.05600000
O 144.08400000 97.70400000 151.16700000
O 144.08400000 97.70400000 154.27800000
O 144.08400000 102.18600000 135.60900000
O 144.08400000 102.18600000 138.72300000
O 144.08400000 102.18600000 141.83400000
O 144.08400000 106.66800000 135.60900000
O 144.08400000 106.66800000 138.72300000
O 144.08400000 106.66800000 141.83400000
O 144.08400000 111.15300000 138.72300000
O 144.08400000 111.15300000 141.83400000
O 144.08400000 115.63500000 141.83400000
O 144.08400000 88.74000000 157.38900000
O 144.08400000 93.22200000 157.38900000
O 144.08400000 93.22200000 160.50000000
O 144.08400000 93.22200000 163.61100000
O 144.08400000 97.70400000 157.38900000
O 144.08400000 97.70400000 160.50000000
O 144.08400000 97.70400000 163.61100000
O 144.08400000 102.18600000 144.94500000
O 144.08400000 102.18600000 148.05600000
O 144.08400000 102.18600000 151.16700000
O 144.08400000 102.18600000 154.27800000
O 144.08400000 106.66800000 144.94500000
O 144.08400000 106.66800000 148.05600000
O 144.08400000 106.66800000 151.16700000
O 144.08400000 106.66800000 154.27800000
O 144.08400000 111.15300000 144.94500000
O 144.08400000 111.15300000 148.05600000
O 144.08400000 111.15300000 151.16700000
O 144.08400000 111.15300000 154.27800000
O 144.08400000 115.63500000 144.94500000
O 144.08400000 115.63500000 148.05600000
O 144.08400000 115.63500000 151.16700000
O 144.08400000 115.63500000 154.27800000
O 144.08400000 102.18600000 157.38900000
O 144.08400000 102.18600000 160.50000000
O 144.08400000 102.18600000 163.61100000
O 144.08400000 106.66800000 157.38900000
O 144.08400000 106.66800000 160.50000000
O 144.08400000 106.66800000 163.61100000
O 144.08400000 111.15300000 157.38900000
O 144.08400000 111.15300000 160.50000000
O 144.08400000 115.63500000 157.38900000
O 145.83000000 91.47600000 138.72300000
O 145.83000000 91.47600000 141.83400000
O 145.83000000 86.99400000 144.94500000
O 145.83000000 86.99400000 148.05600000
O 145.83000000 86.99400000 151.16700000
O 145.83000000 86.99400000 154.27800000
O 145.83000000 91.47600000 144.94500000
O 145.83000000 91.47600000 148.05600000
O 145.83000000 91.47600000 151.16700000
O 145.83000000 91.47600000 154.27800000
O 145.83000000 95.96100000 135.60900000
O 145.83000000 95.96100000 138.72300000
O 145.83000000 95.96100000 141.83400000
O 145.83000000 100.44300000 135.60900000
O 145.83000000 100.44300000 138.72300000
O 145.83000000 100.44300000 141.83400000
O 145.83000000 104.92500000 135.60900000
O 145.83000000 104.92500000 138.72300000
O 145.83000000 104.92500000 141.83400000
O 145.83000000 109.40700000 135.60900000
O 145.83000000 109.40700000 138.72300000
O 145.83000000 109.40700000 141.83400000
O 145.83000000 86.99400000 157.38900000
O 145.83000000 91.47600000 157.38900000
O 145.83000000 91.47600000 160.50000000
O 145.83000000 95.96100000 144.94500000
O 145.83000000 95.96100000 148.05600000
O 145.83000000 95.96100000 151.16700000
O 145.83000000 95.96100000 154.27800000
O 145.83000000 100.44300000 144.94500000
O 145.83000000 100.44300000 148.05600000
O 145.83000000 100.44300000 151.16700000
O 145.83000000 100.44300000 154.27800000
O 145.83000000 104.92500000 144.94500000
O 145.83000000 104.92500000 148.05600000
O 145.83000000 104.92500000 151.16700000
O 145.83000000 104.92500000 154.27800000
O 145.83000000 109.40700000 144.94500000
O 145.83000000 109.40700000 148.05600000
O 145.83000000 109.40700000 151.16700000
O 145.83000000 109.40700000 154.27800000
O 145.83000000 113.88900000 138.72300000
O 145.83000000 113.88900000 141.83400000
O 145.83000000 95.96100000 157.38900000
O 145.83000000 95.96100000 160.50000000
O 145.83000000 95.96100000 163.61100000
O 145.83000000 100.44300000 157.38900000
O 145.83000000 100.44300000 160.50000000
O 145.83000000 100.44300000 163.61100000
O 145.83000000 100.44300000 166.72200000
O 145.83000000 104.92500000 157.38900000
O 145.83000000 104.92500000 160.50000000
O 145.83000000 104.92500000 163.61100000
O 145.83000000 109.40700000 157.38900000
O 145.83000000 109.40700000 160.50000000
O 145.83000000 109.40700000 163.61100000
O 145.83000000 113.88900000 144.94500000
O 145.83000000 113.88900000 148.05600000
O 145.83000000 113.88900000 151.16700000
O 145.83000000 113.88900000 154.27800000
O 145.83000000 118.37100000 148.05600000
O 145.83000000 118.37100000 151.16700000
O 145.83000000 113.88900000 157.38900000
O 145.83000000 113.88900000 160.50000000
O 146.32500000 89.23500000 140.27700000
O 146.32500000 89.23500000 143.38800000
O 146.32500000 93.72000000 137.16600000
O 146.32500000 89.23500000 146.49900000
O 146.32500000 89.23500000 149.61000000
O 146.32500000 89.23500000 152.72100000
O 146.32500000 93.72000000 140.27700000
O 146.32500000 93.72000000 143.38800000
O 146.32500000 98.20200000 134.05500000
O 146.32500000 98.20200000 137.16600000
O 146.32500000 102.68400000 134.05500000
O 146.32500000 102.68400000 137.16600000
O 146.32500000 89.23500000 155.83500000
O 146.32500000 89.23500000 158.94600000
O 146.32500000 93.72000000 146.49900000
O 146.32500000 93.72000000 149.61000000
O 146.32500000 93.72000000 152.72100000
O 146.32500000 98.20200000 140.27700000
O 146.32500000 98.20200000 143.38800000
O 146.32500000 102.68400000 140.27700000
O 146.32500000 102.68400000 143.38800000
O 146.32500000 107.16600000 134.05500000
O 146.32500000 107.16600000 137.16600000
O 146.32500000 111.64800000 137.16600000
O 146.32500000 93.72000000 155.83500000
O 146.32500000 93.72000000 158.94600000
O 146.32500000 98.20200000 146.49900000
O 146.32500000 98.20200000 149.61000000
O 146.32500000 98.20200000 152.72100000
O 146.32500000 102.68400000 146.49900000
O 146.32500000 102.68400000 149.61000000
O 146.32500000 102.68400000 152.72100000
O 146.32500000 107.16600000 140.27700000
O 146.32500000 107.16600000 143.38800000
O 146.32500000 111.64800000 140.27700000
O 146.32500000 111.64800000 143.38800000
O 146.32500000 93.72000000 162.05700000
O 146.32500000 98.20200000 155.83500000
O 146.32500000 98.20200000 158.94600000
O 146.32500000 102.68400000 155.83500000
O 146.32500000 102.68400000 158.94600000
O 146.32500000 107.16600000 146.49900000
O 146.32500000 107.16600000 149.61000000
O 146.32500000 107.16600000 152.72100000
O 146.32500000 111.64800000 146.49900000
O 146.32500000 111.64800000 149.61000000
O 146.32500000 111.64800000 152.72100000
O 146.32500000 116.13000000 143.38800000
O 146.32500000 98.20200000 162.05700000
O 146.32500000 98.20200000 165.16800000
O 146.32500000 102.68400000 162.05700000
O 146.32500000 102.68400000 165.16800000
O 146.32500000 107.16600000 155.83500000
O 146.32500000 107.16600000 158.94600000
O 146.32500000 111.64800000 155.83500000
O 146.32500000 111.64800000 158.94600000
O 146.32500000 116.13000000 146.49900000
O 146.32500000 116.13000000 149.61000000
O 146.32500000 116.13000000 152.72100000
O 146.32500000 107.16600000 162.05700000
O 146.32500000 107.16600000 165.16800000
O 146.32500000 111.64800000 162.05700000
O 146.32500000 116.13000000 155.83500000
O 146.32500000 116.13000000 158.94600000
O 148.07100000 86.49900000 143.38800000
O 148.07100000 90.98100000 137.16600000
O 148.07100000 86.49900000 146.49900000
O 148.07100000 90.98100000 140.27700000
O 148.07100000 95.46300000 134.05500000
O 148.07100000 95.46300000 137.16600000
O 148.07100000 86.49900000 149.61000000
O 148.07100000 90.98100000 143.38800000
O 148.07100000 95.46300000 140.27700000
O 148.07100000 99.94500000 134.05500000
O 148.07100000 99.94500000 137.16600000
O 148.07100000 86.49900000 152.72100000
O 148.07100000 90.98100000 146.49900000
O 148.07100000 95.46300000 143.38800000
O 148.07100000 99.94500000 140.27700000
O 148.07100000 104.42700000 134.05500000
O 148.07100000 104.42700000 137.16600000
O 148.07100000 86.49900000 155.83500000
O 148.07100000 90.98100000 149.61000000
O 148.07100000 95.46300000 146.49900000
O 148.07100000 99.94500000 143.38800000
O 148.07100000 104.42700000 140.27700000
O 148.07100000 90.98100000 152.72100000
O 148.07100000 95.46300000 149.61000000
O 148.07100000 99.94500000 146.49900000
O 148.07100000 104.42700000 143.38800000
O 148.07100000 108.90900000 137.16600000
O 148.07100000 90.98100000 155.83500000
O 148.07100000 90.98100000 158.94600000
O 148.07100000 95.46300000 152.72100000
O 148.07100000 99.94500000 149.61000000
O 148.07100000 104.42700000 146.49900000
O 148.07100000 108.90900000 140.27700000
O 148.07100000 113.39400000 137.16600000
O 148.07100000 90.98100000 162.05700000
O 148.07100000 95.46300000 155.83500000
O 148.07100000 95.46300000 158.94600000
O 148.07100000 99.94500000 152.72100000
O 148.07100000 104.42700000 149.61000000
O 148.07100000 108.90900000 143.38800000
O 148.07100000 113.39400000 140.27700000
O 148.07100000 95.46300000 162.05700000
O 148.07100000 99.94500000 155.83500000
O 148.07100000 99.94500000 158.94600000
O 148.07100000 104.42700000 152.72100000
O 148.07100000 108.90900000 146.49900000
O 148.07100000 113.39400000 143.38800000
O 148.07100000 95.46300000 165.16800000
O 148.07100000 99.94500000 162.05700000
O 148.07100000 104.42700000 155.83500000
O 148.07100000 104.42700000 158.94600000
O 148.07100000 108.90900000 149.61000000
O 148.07100000 113.39400000 146.49900000
O 148.07100000 99.94500000 165.16800000
O 148.07100000 104.42700000 162.05700000
O 148.07100000 108.90900000 152.72100000
O 148.07100000 113.39400000 149.61000000
O 148.07100000 117.87600000 146.49900000
O 148.07100000 104.42700000 165.16800000
O 148.07100000 108.90900000 155.83500000
O 148.07100000 108.90900000 158.94600000
O 148.07100000 113.39400000 152.72100000
O 148.07100000 117.87600000 149.61000000
O 148.07100000 108.90900000 162.05700000
O 148.07100000 113.39400000 155.83500000
O 148.07100000 113.39400000 158.94600000
O 148.07100000 117.87600000 152.72100000
O 148.07100000 108.90900000 165.16800000
O 148.07100000 113.39400000 162.05700000
O 148.07100000 117.87600000 155.83500000
O 148.56900000 93.22200000 135.60900000
O 148.56900000 88.74000000 141.83400000
O 148.56900000 93.22200000 138.72300000
O 148.56900000 97.70400000 135.60900000
O 148.56900000 88.74000000 144.94500000
O 148.56900000 88.74000000 148.05600000
O 148.56900000 93.22200000 141.83400000
O 148.56900000 97.70400000 138.72300000
O 148.56900000 102.18600000 135.60900000
O 148.56900000 88.74000000 151.16700000
O 148.56900000 93.22200000 144.94500000
O 148.56900000 93.22200000 148.05600000
O 148.56900000 97.70400000 141.83400000
O 148.56900000 102.18600000 138.72300000
O 148.56900000 88.74000000 154.27800000
O 148.56900000 93.22200000 151.16700000
O 148.56900000 97.70400000 144.94500000
O 148.56900000 97.70400000 148.05600000
O 148.56900000 102.18600000 141.83400000
O 148.56900000 106.66800000 135.60900000
O 148.56900000 88.74000000 157.38900000
O 148.56900000 93.22200000 154.27800000
O 148.56900000 97.70400000 151.16700000
O 148.56900000 102.18600000 144.94500000
O 148.56900000 102.18600000 148.05600000
O 148.56900000 106.66800000 138.72300000
O 148.56900000 111.15300000 135.60900000
O 148.56900000 88.74000000 160.50000000
O 148.56900000 93.22200000 157.38900000
O 148.56900000 97.70400000 154.27800000
O 148.56900000 102.18600000 151.16700000
O 148.56900000 106.66800000 141.83400000
O 148.56900000 111.15300000 138.72300000
O 148.56900000 93.22200000 160.50000000
O 148.56900000 97.70400000 157.38900000
O 148.56900000 102.18600000 154.27800000
O 148.56900000 106.66800000 144.94500000
O 148.56900000 106.66800000 148.05600000
O 148.56900000 111.15300000 141.83400000
O 148.56900000 93.22200000 163.61100000
O 148.56900000 97.70400000 160.50000000
O 148.56900000 102.18600000 157.38900000
O 148.56900000 106.66800000 151.16700000
O 148.56900000 111.15300000 144.94500000
O 148.56900000 111.15300000 148.05600000
O 148.56900000 115.63500000 141.83400000
O 148.56900000 97.70400000 163.61100000
O 148.56900000 102.18600000 160.50000000
O 148.56900000 106.66800000 154.27800000
O 148.56900000 111.15300000 151.16700000
O 148.56900000 115.63500000 144.94500000
O 148.56900000 115.63500000 148.05600000
O 148.56900000 97.70400000 166.72200000
O 148.56900000 102.18600000 163.61100000
O 148.56900000 106.66800000 157.38900000
O 148.56900000 111.15300000 154.27800000
O 148.56900000 115.63500000 151.16700000
O 148.56900000 102.18600000 166.72200000
O 148.56900000 106.66800000 160.50000000
O 148.56900000 111.15300000 157.38900000
O 148.56900000 115.63500000 154.27800000
O 148.56900000 106.66800000 163.61100000
O 148.56900000 111.15300000 160.50000000
O 148.56900000 115.63500000 157.38900000
O 148.56900000 111.15300000 163.61100000
O 148.56900000 115.63500000 160.50000000
O 150.31200000 86.99400000 141.83400000
O 150.31200000 91.47600000 138.72300000
O 150.31200000 95.96100000 135.60900000
O 150.31200000 86.99400000 144.94500000
O 150.31200000 91.47600000 141.83400000
O 150.31200000 95.96100000 138.72300000
O 150.31200000 86.99400000 148.05600000
O 150.31200000 100.44300000 135.60900000
O 150.31200000 91.47600000 144.94500000
O 150.31200000 95.96100000 141.83400000
O 150.31200000 86.99400000 151.16700000
O 150.31200000 100.44300000 138.72300000
O 150.31200000 91.47600000 148.05600000
O 150.31200000 95.96100000 144.94500000
O 150.31200000 104.92500000 135.60900000
O 150.31200000 86.99400000 154.27800000
O 150.31200000 100.44300000 141.83400000
O 150.31200000 91.47600000 151.16700000
O 150.31200000 95.96100000 148.05600000
O 150.31200000 104.92500000 138.72300000
O 150.31200000 86.99400000 157.38900000
O 150.31200000 100.44300000 144.94500000
O 150.31200000 109.40700000 135.60900000
O 150.31200000 91.47600000 154.27800000
O 150.31200000 95.96100000 151.16700000
O 150.31200000 104.92500000 141.83400000
O 150.31200000 100.44300000 148.05600000
O 150.31200000 109.40700000 138.72300000
O 150.31200000 91.47600000 157.38900000
O 150.31200000 104.92500000 144.94500000
O 150.31200000 95.96100000 154.27800000
O 150.31200000 100.44300000 151.16700000
O 150.31200000 109.40700000 141.83400000
O 150.31200000 91.47600000 160.50000000
O 150.31200000 95.96100000 157.38900000
O 150.31200000 104.92500000 148.05600000
O 150.31200000 113.88900000 138.72300000
O 150.31200000 109.40700000 144.94500000
O 150.31200000 100.44300000 154.27800000
O 150.31200000 91.47600000 163.61100000
O 150.31200000 104.92500000 151.16700000
O 150.31200000 113.88900000 141.83400000
O 150.31200000 95.96100000 160.50000000
O 150.31200000 100.44300000 157.38900000
O 150.31200000 109.40700000 148.05600000
O 150.31200000 113.88900000 144.94500000
O 150.31200000 95.96100000 163.61100000
O 150.31200000 104.92500000 154.27800000
O 150.31200000 109.40700000 151.16700000
O 150.31200000 100.44300000 160.50000000
O 150.31200000 104.92500000 157.38900000
O 150.31200000 113.88900000 148.05600000
O 150.31200000 118.37100000 144.94500000
O 150.31200000 100.44300000 163.61100000
O 150.31200000 109.40700000 154.27800000
O 150.31200000 113.88900000 151.16700000
O 150.31200000 104.92500000 160.50000000
O 150.31200000 100.44300000 166.72200000
O 150.31200000 109.40700000 157.38900000
O 150.31200000 118.37100000 148.05600000
O 150.31200000 104.92500000 163.61100000
O 150.31200000 113.88900000 154.27800000
O 150.31200000 118.37100000 151.16700000
O 150.31200000 109.40700000 160.50000000
O 150.31200000 104.92500000 166.72200000
O 150.31200000 113.88900000 157.38900000
O 150.31200000 109.40700000 163.61100000
O 150.31200000 118.37100000 154.27800000
O 150.31200000 113.88900000 160.50000000
O 150.81000000 89.23500000 140.27700000
O 150.81000000 93.72000000 137.16600000
O 150.81000000 98.20200000 134.05500000
O 150.81000000 89.23500000 143.38800000
O 150.81000000 84.75300000 149.61000000
O 150.81000000 93.72000000 140.27700000
O 150.81000000 98.20200000 137.16600000
O 150.81000000 89.23500000 146.49900000
O 150.81000000 93.72000000 143.38800000
O 150.81000000 102.68400000 134.05500000
O 150.81000000 84.75300000 152.72100000
O 150.81000000 98.20200000 140.27700000
O 150.81000000 89.23500000 149.61000000
O 150.81000000 93.72000000 146.49900000
O 150.81000000 98.20200000 143.38800000
O 150.81000000 102.68400000 137.16600000
O 150.81000000 107.16600000 134.05500000
O 150.81000000 89.23500000 152.72100000
O 150.81000000 93.72000000 149.61000000
O 150.81000000 98.20200000 146.49900000
O 150.81000000 102.68400000 140.27700000
O 150.81000000 107.16600000 137.16600000
O 150.81000000 89.23500000 155.83500000
O 150.81000000 102.68400000 143.38800000
O 150.81000000 93.72000000 152.72100000
O 150.81000000 98.20200000 149.61000000
O 150.81000000 107.16600000 140.27700000
O 150.81000000 89.23500000 158.94600000
O 150.81000000 93.72000000 155.83500000
O 150.81000000 102.68400000 146.49900000
O 150.81000000 107.16600000 143.38800000
O 150.81000000 111.64800000 137.16600000
O 150.81000000 98.20200000 152.72100000
O 150.81000000 93.72000000 158.94600000
O 150.81000000 98.20200000 155.83500000
O 150.81000000 102.68400000 149.61000000
O 150.81000000 107.16600000 146.49900000
O 150.81000000 111.64800000 140.27700000
O 150.81000000 111.64800000 143.38800000
O 150.81000000 93.72000000 162.05700000
O 150.81000000 98.20200000 158.94600000
O 150.81000000 102.68400000 152.72100000
O 150.81000000 107.16600000 149.61000000
O 150.81000000 116.13000000 140.27700000
O 150.81000000 93.72000000 165.16800000
O 150.81000000 102.68400000 155.83500000
O 150.81000000 111.64800000 146.49900000
O 150.81000000 116.13000000 143.38800000
O 150.81000000 98.20200000 162.05700000
O 150.81000000 107.16600000 152.72100000
O 150.81000000 98.20200000 165.16800000
O 150.81000000 102.68400000 158.94600000
O 150.81000000 107.16600000 155.83500000
O 150.81000000 111.64800000 149.61000000
O 150.81000000 116.13000000 146.49900000
O 150.81000000 102.68400000 162.05700000
O 150.81000000 107.16600000 158.94600000
O 150.81000000 111.64800000 152.72100000
O 150.81000000 116.13000000 149.61000000
O 150.81000000 102.68400000 165.16800000
O 150.81000000 111.64800000 155.83500000
O 150.81000000 107.16600000 162.05700000
O 150.81000000 116.13000000 152.72100000
O 150.81000000 107.16600000 165.16800000
O 150.81000000 111.64800000 158.94600000
O 150.81000000 116.13000000 155.83500000
O 150.81000000 111.64800000 162.05700000
O 150.81000000 116.13000000 158.94600000
O 152.55300000 90.98100000 137.16600000
O 152.55300000 86.49900000 143.38800000
O 152.55300000 90.98100000 140.27700000
O 152.55300000 90.98100000 143.38800000
O 152.55300000 95.46300000 137.16600000
O 152.55300000 86.49900000 146.49900000
O 152.55300000 86.49900000 149.61000000
O 152.55300000 86.49900000 152.72100000
O 152.55300000 90.98100000 146.49900000
O 152.55300000 90.98100000 149.61000000
O 152.55300000 90.98100000 152.72100000
O 152.55300000 95.46300000 140.27700000
O 152.55300000 95.46300000 143.38800000
O 152.55300000 99.94500000 134.05500000
O 152.55300000 99.94500000 137.16600000
O 152.55300000 104.42700000 134.05500000
O 152.55300000 104.42700000 137.16600000
O 152.55300000 86.49900000 155.83500000
O 152.55300000 90.98100000 155.83500000
O 152.55300000 90.98100000 158.94600000
O 152.55300000 95.46300000 146.49900000
O 152.55300000 95.46300000 149.61000000
O 152.55300000 95.46300000 152.72100000
O 152.55300000 99.94500000 140.27700000
O 152.55300000 99.94500000 143.38800000
O 152.55300000 104.42700000 140.27700000
O 152.55300000 104.42700000 143.38800000
O 152.55300000 108.90900000 137.16600000
O 152.55300000 90.98100000 162.05700000
O 152.55300000 95.46300000 155.83500000
O 152.55300000 95.46300000 158.94600000
O 152.55300000 99.94500000 146.49900000
O 152.55300000 99.94500000 149.61000000
O 152.55300000 99.94500000 152.72100000
O 152.55300000 104.42700000 146.49900000
O 152.55300000 104.42700000 149.61000000
O 152.55300000 104.42700000 152.72100000
O 152.55300000 108.90900000 140.27700000
O 152.55300000 108.90900000 143.38800000
O 152.55300000 113.39400000 140.27700000
O 152.55300000 113.39400000 143.38800000
O 152.55300000 95.46300000 162.05700000
O 152.55300000 95.46300000 165.16800000
O 152.55300000 99.94500000 155.83500000
O 152.55300000 99.94500000 158.94600000
O 152.55300000 104.42700000 155.83500000
O 152.55300000 104.42700000 158.94600000
O 152.55300000 108.90900000 146.49900000
O 152.55300000 108.90900000 149.61000000
O 152.55300000 108.90900000 152.72100000
O 152.55300000 113.39400000 146.49900000
O 152.55300000 113.39400000 149.61000000
O 152.55300000 113.39400000 152.72100000
O 152.55300000 99.94500000 162.05700000
O 152.55300000 99.94500000 165.16800000
O 152.55300000 104.42700000 162.05700000
O 152.55300000 104.42700000 165.16800000
O 152.55300000 108.90900000 155.83500000
O 152.55300000 108.90900000 158.94600000
O 152.55300000 113.39400000 155.83500000
O 152.55300000 113.39400000 158.94600000
O 152.55300000 117.87600000 146.49900000
O 152.55300000 117.87600000 149.61000000
O 152.55300000 117.87600000 152.72100000
O 152.55300000 108.90900000 162.05700000
O 152.55300000 108.90900000 165.16800000
O 152.55300000 113.39400000 162.05700000
O 152.55300000 117.87600000 155.83500000
O 153.05100000 88.74000000 141.83400000
O 153.05100000 88.74000000 144.94500000
O 153.05100000 93.22200000 135.60900000
O 153.05100000 93.22200000 138.72300000
O 153.05100000 88.74000000 148.05600000
O 153.05100000 88.74000000 151.16700000
O 153.05100000 93.22200000 141.83400000
O 153.05100000 93.22200000 144.94500000
O 153.05100000 97.70400000 135.60900000
O 153.05100000 97.70400000 138.72300000
O 153.05100000 102.18600000 135.60900000
O 153.05100000 102.18600000 138.72300000
O 153.05100000 88.74000000 154.27800000
O 153.05100000 88.74000000 157.38900000
O 153.05100000 88.74000000 160.50000000
O 153.05100000 93.22200000 148.05600000
O 153.05100000 93.22200000 151.16700000
O 153.05100000 97.70400000 141.83400000
O 153.05100000 97.70400000 144.94500000
O 153.05100000 102.18600000 141.83400000
O 153.05100000 102.18600000 144.94500000
O 153.05100000 106.66800000 135.60900000
O 153.05100000 106.66800000 138.72300000
O 153.05100000 111.15300000 138.72300000
O 153.05100000 93.22200000 154.27800000
O 153.05100000 93.22200000 157.38900000
O 153.05100000 93.22200000 160.50000000
O 153.05100000 97.70400000 148.05600000
O 153.05100000 97.70400000 151.16700000
O 153.05100000 102.18600000 148.05600000
O 153.05100000 102.18600000 151.16700000
O 153.05100000 106.66800000 141.83400000
O 153.05100000 106.66800000 144.94500000
O 153.05100000 111.15300000 141.83400000
O 153.05100000 111.15300000 144.94500000
O 153.05100000 93.22200000 163.61100000
O 153.05100000 97.70400000 154.27800000
O 153.05100000 97.70400000 157.38900000
O 153.05100000 97.70400000 160.50000000
O 153.05100000 102.18600000 154.27800000
O 153.05100000 102.18600000 157.38900000
O 153.05100000 102.18600000 160.50000000
O 153.05100000 106.66800000 148.05600000
O 153.05100000 106.66800000 151.16700000
O 153.05100000 111.15300000 148.05600000
O 153.05100000 111.15300000 151.16700000
O 153.05100000 115.63500000 141.83400000
O 153.05100000 115.63500000 144.94500000
O 153.05100000 97.70400000 163.61100000
O 153.05100000 102.18600000 163.61100000
O 153.05100000 102.18600000 166.72200000
O 153.05100000 106.66800000 154.27800000
O 153.05100000 106.66800000 157.38900000
O 153.05100000 106.66800000 160.50000000
O 153.05100000 111.15300000 154.27800000
O 153.05100000 111.15300000 157.38900000
O 153.05100000 111.15300000 160.50000000
O 153.05100000 115.63500000 148.05600000
O 153.05100000 115.63500000 151.16700000
O 153.05100000 106.66800000 163.61100000
O 153.05100000 111.15300000 163.61100000
O 153.05100000 115.63500000 154.27800000
O 153.05100000 115.63500000 157.38900000
O 154.79400000 91.47600000 138.72300000
O 154.79400000 91.47600000 141.83400000
O 154.79400000 86.99400000 144.94500000
O 154.79400000 86.99400000 148.05600000
O 154.79400000 86.99400000 151.16700000
O 154.79400000 86.99400000 154.27800000
O 154.79400000 91.47600000 144.94500000
O 154.79400000 91.47600000 148.05600000
O 154.79400000 91.47600000 151.16700000
O 154.79400000 91.47600000 154.27800000
O 154.79400000 95.96100000 135.60900000
O 154.79400000 95.96100000 138.72300000
O 154.79400000 95.96100000 141.83400000
O 154.79400000 100.44300000 135.60900000
O 154.79400000 100.44300000 138.72300000
O 154.79400000 100.44300000 141.83400000
O 154.79400000 104.92500000 135.60900000
O 154.79400000 104.92500000 138.72300000
O 154.79400000 104.92500000 141.83400000
O 154.79400000 109.40700000 135.60900000
O 154.79400000 109.40700000 138.72300000
O 154.79400000 109.40700000 141.83400000
O 154.79400000 86.99400000 157.38900000
O 154.79400000 91.47600000 157.38900000
O 154.79400000 91.47600000 160.50000000
O 154.79400000 95.96100000 144.94500000
O 154.79400000 95.96100000 148.05600000
O 154.79400000 95.96100000 151.16700000
O 154.79400000 95.96100000 154.27800000
O 154.79400000 100.44300000 144.94500000
O 154.79400000 100.44300000 148.05600000
O 154.79400000 100.44300000 151.16700000
O 154.79400000 100.44300000 154.27800000
O 154.79400000 104.92500000 144.94500000
O 154.79400000 104.92500000 148.05600000
O 154.79400000 104.92500000 151.16700000
O 154.79400000 104.92500000 154.27800000
O 154.79400000 109.40700000 144.94500000
O 154.79400000 109.40700000 148.05600000
O 154.79400000 109.40700000 151.16700000
O 154.79400000 109.40700000 154.27800000
O 154.79400000 113.88900000 138.72300000
O 154.79400000 113.88900000 141.83400000
O 154.79400000 95.96100000 157.38900000
O 154.79400000 95.96100000 160.50000000
O 154.79400000 95.96100000 163.61100000
O 154.79400000 100.44300000 157.38900000
O 154.79400000 100.44300000 160.50000000
O 154.79400000 100.44300000 163.61100000
O 154.79400000 104.92500000 157.38900000
O 154.79400000 104.92500000 160.50000000
O 154.79400000 104.92500000 163.61100000
O 154.79400000 109.40700000 157.38900000
O 154.79400000 109.40700000 160.50000000
O 154.79400000 109.40700000 163.61100000
O 154.79400000 113.88900000 144.94500000
O 154.79400000 113.88900000 148.05600000
O 154.79400000 113.88900000 151.16700000
O 154.79400000 113.88900000 154.27800000
O 154.79400000 118.37100000 148.05600000
O 154.79400000 118.37100000 151.16700000
O 154.79400000 113.88900000 157.38900000
O 154.79400000 113.88900000 160.50000000
O 155.29200000 89.23500000 140.27700000
O 155.29200000 93.72000000 137.16600000
O 155.29200000 93.72000000 140.27700000
O 155.29200000 98.20200000 134.05500000
O 155.29200000 98.20200000 137.16600000
O 155.29200000 98.20200000 140.27700000
O 155.29200000 89.23500000 143.38800000
O 155.29200000 89.23500000 146.49900000
O 155.29200000 89.23500000 149.61000000
O 155.29200000 89.23500000 152.72100000
O 155.29200000 89.23500000 155.83500000
O 155.29200000 93.72000000 143.38800000
O 155.29200000 93.72000000 146.49900000
O 155.29200000 93.72000000 149.61000000
O 155.29200000 93.72000000 152.72100000
O 155.29200000 93.72000000 155.83500000
O 155.29200000 98.20200000 143.38800000
O 155.29200000 98.20200000 146.49900000
O 155.29200000 98.20200000 149.61000000
O 155.29200000 98.20200000 152.72100000
O 155.29200000 98.20200000 155.83500000
O 155.29200000 102.68400000 134.05500000
O 155.29200000 102.68400000 137.16600000
O 155.29200000 102.68400000 140.27700000
O 155.29200000 107.16600000 137.16600000
O 155.29200000 107.16600000 140.27700000
O 155.29200000 111.64800000 137.16600000
O 155.29200000 111.64800000 140.27700000
O 155.29200000 89.23500000 158.94600000
O 155.29200000 93.72000000 158.94600000
O 155.29200000 93.72000000 162.05700000
O 155.29200000 98.20200000 158.94600000
O 155.29200000 98.20200000 162.05700000
O 155.29200000 98.20200000 165.16800000
O 155.29200000 102.68400000 143.38800000
O 155.29200000 102.68400000 146.49900000
O 155.29200000 102.68400000 149.61000000
O 155.29200000 102.68400000 152.72100000
O 155.29200000 102.68400000 155.83500000
O 155.29200000 107.16600000 143.38800000
O 155.29200000 107.16600000 146.49900000
O 155.29200000 107.16600000 149.61000000
O 155.29200000 107.16600000 152.72100000
O 155.29200000 107.16600000 155.83500000
O 155.29200000 111.64800000 143.38800000
O 155.29200000 111.64800000 146.49900000
O 155.29200000 111.64800000 149.61000000
O 155.29200000 111.64800000 152.72100000
O 155.29200000 111.64800000 155.83500000
O 155.29200000 102.68400000 158.94600000
O 155.29200000 102.68400000 162.05700000
O 155.29200000 102.68400000 165.16800000
O 155.29200000 107.16600000 158.94600000
O 155.29200000 107.16600000 162.05700000
O 155.29200000 107.16600000 165.16800000
O 155.29200000 111.64800000 158.94600000
O 155.29200000 111.64800000 162.05700000
O 155.29200000 116.13000000 143.38800000
O 155.29200000 116.13000000 146.49900000
O 155.29200000 116.13000000 149.61000000
O 155.29200000 116.13000000 152.72100000
O 155.29200000 116.13000000 155.83500000
O 157.03500000 90.98100000 140.27700000
O 157.03500000 86.49900000 146.49900000
O 157.03500000 86.49900000 149.61000000
O 157.03500000 86.49900000 152.72100000
O 157.03500000 90.98100000 143.38800000
O 157.03500000 90.98100000 146.49900000
O 157.03500000 90.98100000 149.61000000
O 157.03500000 90.98100000 152.72100000
O 157.03500000 90.98100000 155.83500000
O 157.03500000 95.46300000 137.16600000
O 157.03500000 95.46300000 140.27700000
O 157.03500000 99.94500000 137.16600000
O 157.03500000 99.94500000 140.27700000
O 157.03500000 104.42700000 137.16600000
O 157.03500000 104.42700000 140.27700000
O 157.03500000 108.90900000 137.16600000
O 157.03500000 108.90900000 140.27700000
O 157.03500000 90.98100000 158.94600000
O 157.03500000 95.46300000 143.38800000
O 157.03500000 95.46300000 146.49900000
O 157.03500000 95.46300000 149.61000000
O 157.03500000 95.46300000 152.72100000
O 157.03500000 95.46300000 155.83500000
O 157.03500000 99.94500000 143.38800000
O 157.03500000 99.94500000 146.49900000
O 157.03500000 99.94500000 149.61000000
O 157.03500000 99.94500000 152.72100000
O 157.03500000 99.94500000 155.83500000
O 157.03500000 104.42700000 143.38800000
O 157.03500000 104.42700000 146.49900000
O 157.03500000 104.42700000 149.61000000
O 157.03500000 104.42700000 152.72100000
O 157.03500000 104.42700000 155.83500000
O 157.03500000 108.90900000 143.38800000
O 157.03500000 108.90900000 146.49900000
O 157.03500000 108.90900000 149.61000000
O 157.03500000 108.90900000 152.72100000
O 157.03500000 108.90900000 155.83500000
O 157.03500000 113.39400000 140.27700000
O 157.03500000 95.46300000 158.94600000
O 157.03500000 95.46300000 162.05700000
O 157.03500000 99.94500000 158.94600000
O 157.03500000 99.94500000 162.05700000
O 157.03500000 99.94500000 165.16800000
O 157.03500000 104.42700000 158.94600000
O 157.03500000 104.42700000 162.05700000
O 157.03500000 104.42700000 165.16800000
O 157.03500000 108.90900000 158.94600000
O 157.03500000 108.90900000 162.05700000
O 157.03500000 113.39400000 143.38800000
O 157.03500000 113.39400000 146.49900000
O 157.03500000 113.39400000 149.61000000
O 157.03500000 113.39400000 152.72100000
O 157.03500000 113.39400000 155.83500000
O 157.03500000 113.39400000 158.94600000
O 157.53300000 88.74000000 141.83400000
O 157.53300000 93.22200000 138.72300000
O 157.53300000 93.22200000 141.83400000
O 157.53300000 97.70400000 135.60900000
O 157.53300000 97.70400000 138.72300000
O 157.53300000 97.70400000 141.83400000
O 157.53300000 88.74000000 144.94500000
O 157.53300000 88.74000000 148.05600000
O 157.53300000 88.74000000 151.16700000
O 157.53300000 88.74000000 154.27800000
O 157.53300000 93.22200000 144.94500000
O 157.53300000 93.22200000 148.05600000
O 157.53300000 93.22200000 151.16700000
O 157.53300000 93.22200000 154.27800000
O 157.53300000 97.70400000 144.94500000
O 157.53300000 97.70400000 148.05600000
O 157.53300000 97.70400000 151.16700000
O 157.53300000 97.70400000 154.27800000
O 157.53300000 102.18600000 135.60900000
O 157.53300000 102.18600000 138.72300000
O 157.53300000 102.18600000 141.83400000
O 157.53300000 106.66800000 135.60900000
O 157.53300000 106.66800000 138.72300000
O 157.53300000 106.66800000 141.83400000
O 157.53300000 111.15300000 138.72300000
O 157.53300000 111.15300000 141.83400000
O 157.53300000 88.74000000 157.38900000
O 157.53300000 93.22200000 157.38900000
O 157.53300000 93.22200000 160.50000000
O 157.53300000 97.70400000 157.38900000
O 157.53300000 97.70400000 160.50000000
O 157.53300000 97.70400000 163.61100000
O 157.53300000 102.18600000 144.94500000
O 157.53300000 102.18600000 148.05600000
O 157.53300000 102.18600000 151.16700000
O 157.53300000 102.18600000 154.27800000
O 157.53300000 106.66800000 144.94500000
O 157.53300000 106.66800000 148.05600000
O 157.53300000 106.66800000 151.16700000
O 157.53300000 106.66800000 154.27800000
O 157.53300000 111.15300000 144.94500000
O 157.53300000 111.15300000 148.05600000
O 157.53300000 111.15300000 151.16700000
O 157.53300000 111.15300000 154.27800000
O 157.53300000 115.63500000 144.94500000
O 157.53300000 115.63500000 148.05600000
O 157.53300000 115.63500000 151.16700000
O 157.53300000 115.63500000 154.27800000
O 157.53300000 102.18600000 157.38900000
O 157.53300000 102.18600000 160.50000000
O 157.53300000 102.18600000 163.61100000
O 157.53300000 106.66800000 157.38900000
O 157.53300000 106.66800000 160.50000000
O 157.53300000 106.66800000 163.61100000
O 157.53300000 111.15300000 157.38900000
O 157.53300000 111.15300000 160.50000000
O 157.53300000 115.63500000 157.38900000
O 159.27600000 91.47600000 141.83400000
O 159.27600000 91.47600000 144.94500000
O 159.27600000 91.47600000 148.05600000
O 159.27600000 91.47600000 151.16700000
O 159.27600000 91.47600000 154.27800000
O 159.27600000 91.47600000 157.38900000
O 159.27600000 95.96100000 138.72300000
O 159.27600000 95.96100000 141.83400000
O 159.27600000 95.96100000 144.94500000
O 159.27600000 95.96100000 148.05600000
O 159.27600000 95.96100000 151.16700000
O 159.27600000 95.96100000 154.27800000
O 159.27600000 95.96100000 157.38900000
O 159.27600000 95.96100000 160.50000000
O 159.27600000 100.44300000 135.60900000
O 159.27600000 100.44300000 138.72300000
O 159.27600000 100.44300000 141.83400000
O 159.27600000 100.44300000 144.94500000
O 159.27600000 100.44300000 148.05600000
O 159.27600000 100.44300000 151.16700000
O 159.27600000 100.44300000 154.27800000
O 159.27600000 100.44300000 157.38900000
O 159.27600000 100.44300000 160.50000000
O 159.27600000 100.44300000 163.61100000
O 159.27600000 104.92500000 138.72300000
O 159.27600000 104.92500000 141.83400000
O 159.27600000 104.92500000 144.94500000
O 159.27600000 104.92500000 148.05600000
O 159.27600000 104.92500000 151.16700000
O 159.27600000 104.92500000 154.27800000
O 159.27600000 104.92500000 157.38900000
O 159.27600000 104.92500000 160.50000000
O 159.27600000 104.92500000 163.61100000
O 159.27600000 109.40700000 138.72300000
O 159.27600000 109.40700000 141.83400000
O 159.27600000 109.40700000 144.94500000
O 159.27600000 109.40700000 148.05600000
O 159.27600000 109.40700000 151.16700000
O 159.27600000 109.40700000 154.27800000
O 159.27600000 109.40700000 157.38900000
O 159.27600000 109.40700000 160.50000000
O 159.27600000 113.88900000 141.83400000
O 159.27600000 113.88900000 144.94500000
O 159.27600000 113.88900000 148.05600000
O 159.27600000 113.88900000 151.16700000
O 159.27600000 113.88900000 154.27800000
O 159.27600000 113.88900000 157.38900000
O 159.77400000 89.23500000 143.38800000
O 159.77400000 89.23500000 146.49900000
O 159.77400000 89.23500000 149.61000000
O 159.77400000 89.23500000 152.72100000
O 159.77400000 89.23500000 155.83500000
O 159.77400000 93.72000000 140.27700000
O 159.77400000 93.72000000 143.38800000
O 159.77400000 93.72000000 146.49900000
O 159.77400000 93.72000000 149.61000000
O 159.77400000 93.72000000 152.72100000
O 159.77400000 93.72000000 155.83500000
O 159.77400000 93.72000000 158.94600000
O 159.77400000 98.20200000 137.16600000
O 159.77400000 98.20200000 140.27700000
O 159.77400000 98.20200000 143.38800000
O 159.77400000 98.20200000 146.49900000
O 159.77400000 98.20200000 149.61000000
O 159.77400000 98.20200000 152.72100000
O 159.77400000 98.20200000 155.83500000
O 159.77400000 98.20200000 158.94600000
O 159.77400000 98.20200000 162.05700000
O 159.77400000 102.68400000 137.16600000
O 159.77400000 102.68400000 140.27700000
O 159.77400000 102.68400000 143.38800000
O 159.77400000 102.68400000 146.49900000
O 159.77400000 102.68400000 149.61000000
O 159.77400000 102.68400000 152.72100000
O 159.77400000 102.68400000 155.83500000
O 159.77400000 102.68400000 158.94600000
O 159.77400000 102.68400000 162.05700000
O 159.77400000 107.16600000 137.16600000
O 159.77400000 107.16600000 140.27700000
O 159.77400000 107.16600000 143.38800000
O 159.77400000 107.16600000 146.49900000
O 159.77400000 107.16600000 149.61000000
O 159.77400000 107.16600000 152.72100000
O 159.77400000 107.16600000 155.83500000
O 159.77400000 107.16600000 158.94600000
O 159.77400000 107.16600000 162.05700000
O 159.77400000 111.64800000 140.27700000
O 159.77400000 111.64800000 143.38800000
O 159.77400000 111.64800000 146.49900000
O 159.77400000 111.64800000 149.61000000
O 159.77400000 111.64800000 152.72100000
O 159.77400000 111.64800000 155.83500000
O 159.77400000 111.64800000 158.94600000
O 159.77400000 116.13000000 149.61000000
O 161.51700000 90.98100000 143.38800000
O 161.51700000 90.98100000 146.49900000
O 161.51700000 90.98100000 149.61000000
O 161.51700000 90.98100000 152.72100000
O 161.51700000 90.98100000 155.83500000
O 161.51700000 95.46300000 140.27700000
O 161.51700000 95.46300000 143.38800000
O 161.51700000 95.46300000 146.49900000
O 161.51700000 95.46300000 149.61000000
O 161.51700000 95.46300000 152.72100000
O 161.51700000 95.46300000 155.83500000
O 161.51700000 95.46300000 158.94600000
O 161.51700000 99.94500000 137.16600000
O 161.51700000 99.94500000 140.27700000
O 161.51700000 99.94500000 143.38800000
O 161.51700000 99.94500000 146.49900000
O 161.51700000 99.94500000 149.61000000
O 161.51700000 99.94500000 152.72100000
O 161.51700000 99.94500000 155.83500000
O 161.51700000 99.94500000 158.94600000
O 161.51700000 99.94500000 162.05700000
O 161.51700000 104.42700000 140.27700000
O 161.51700000 104.42700000 143.38800000
O 161.51700000 104.42700000 146.49900000
O 161.51700000 104.42700000 149.61000000
O 161.51700000 104.42700000 152.72100000
O 161.51700000 104.42700000 155.83500000
O 161.51700000 104.42700000 158.94600000
O 161.51700000 104.42700000 162.05700000
O 161.51700000 108.90900000 140.27700000
O 161.51700000 108.90900000 143.38800000
O 161.51700000 108.90900000 146.49900000
O 161.51700000 108.90900000 149.61000000
O 161.51700000 108.90900000 152.72100000
O 161.51700000 108.90900000 155.83500000
O 161.51700000 108.90900000 158.94600000
O 161.51700000 113.39400000 146.49900000
O 161.51700000 113.39400000 149.61000000
O 161.51700000 113.39400000 152.72100000
O 161.51700000 113.39400000 155.83500000
O 162.01500000 93.22200000 141.83400000
O 162.01500000 93.22200000 144.94500000
O 162.01500000 93.22200000 148.05600000
O 162.01500000 93.22200000 151.16700000
O 162.01500000 93.22200000 154.27800000
O 162.01500000 93.22200000 157.38900000
O 162.01500000 97.70400000 138.72300000
O 162.01500000 97.70400000 141.83400000
O 162.01500000 97.70400000 144.94500000
O 162.01500000 97.70400000 148.05600000
O 162.01500000 97.70400000 151.16700000
O 162.01500000 97.70400000 154.27800000
O 162.01500000 97.70400000 157.38900000
O 162.01500000 97.70400000 160.50000000
O 162.01500000 102.18600000 138.72300000
O 162.01500000 102.18600000 141.83400000
O 162.01500000 102.18600000 144.94500000
O 162.01500000 102.18600000 148.05600000
O 162.01500000 102.18600000 151.16700000
O 162.01500000 102.18600000 154.27800000
O 162.01500000 102.18600000 157.38900000
O 162.01500000 102.18600000 160.50000000
O 162.01500000 106.66800000 138.72300000
O 162.01500000 106.66800000 141.83400000
O 162.01500000 106.66800000 144.94500000
O 162.01500000 106.66800000 148.05600000
O 162.01500000 106.66800000 151.16700000
O 162.01500000 106.66800000 154.27800000
O 162.01500000 106.66800000 157.38900000
O 162.01500000 106.66800000 160.50000000
O 162.01500000 111.15300000 141.83400000
O 162.01500000 111.15300000 144.94500000
O 162.01500000 111.15300000 148.05600000
O 162.01500000 111.15300000 151.16700000
O 162.01500000 111.15300000 154.27800000
O 162.01500000 111.15300000 157.38900000
O 163.75800000 91.47600000 148.05600000
O 163.75800000 91.47600000 151.16700000
O 163.75800000 95.96100000 141.83400000
O 163.75800000 95.96100000 144.94500000
O 163.75800000 95.96100000 148.05600000
O 163.75800000 95.96100000 151.16700000
O 163.75800000 95.96100000 154.27800000
O 163.75800000 95.96100000 157.38900000
O 163.75800000 100.44300000 141.83400000
O 163.75800000 100.44300000 144.94500000
O 163.75800000 100.44300000 148.05600000
O 163.75800000 100.44300000 151.16700000
O 163.75800000 100.44300000 154.27800000
O 163.75800000 100.44300000 157.38900000
O 163.75800000 104.92500000 141.83400000
O 163.75800000 104.92500000 144.94500000
O 163.75800000 104.92500000 148.05600000
O 163.75800000 104.92500000 151.16700000
O 163.75800000 104.92500000 154.27800000
O 163.75800000 104.92500000 157.38900000
O 163.75800000 109.40700000 144.94500000
O 163.75800000 109.40700000 148.05600000
O 163.75800000 109.40700000 151.16700000
O 163.75800000 109.40700000 154.27800000
O 163.75800000 109.40700000 157.38900000
O 164.25600000 93.72000000 146.49900000
O 164.25600000 93.72000000 149.61000000
O 164.25600000 93.72000000 152.72100000
O 164.25600000 98.20200000 143.38800000
O 164.25600000 98.20200000 146.49900000
O 164.25600000 98.20200000 149.61000000
O 164.25600000 98.20200000 152.72100000
O 164.25600000 98.20200000 155.83500000
O 164.25600000 98.20200000 158.94600000
O 164.25600000 102.68400000 140.27700000
O 164.25600000 102.68400000 143.38800000
O 164.25600000 102.68400000 146.49900000
O 164.25600000 102.68400000 149.61000000
O 164.25600000 102.68400000 152.72100000
O 164.25600000 102.68400000 155.83500000
O 164.25600000 102.68400000 158.94600000
O 164.25600000 107.16600000 143.38800000
O 164.25600000 107.16600000 146.49900000
O 164.25600000 107.16600000 149.61000000
O 164.25600000 107.16600000 152.72100000
O 164.25600000 107.16600000 155.83500000
O 164.25600000 111.64800000 149.61000000
O 166.00200000 95.46300000 149.61000000
O 166.00200000 99.94500000 146.49900000
O 166.00200000 99.94500000 149.61000000
O 166.00200000 99.94500000 152.72100000
O 166.00200000 99.94500000 155.83500000
O 166.00200000 104.42700000 146.49900000
O 166.00200000 104.42700000 149.61000000
O 166.00200000 104.42700000 152.72100000
O 166.00200000 104.42700000 155.83500000
O 166.49700000 97.70400000 148.05600000
O 166.49700000 97.70400000 151.16700000
O 166.49700000 102.18600000 144.94500000
O 166.49700000 102.18600000 148.05600000
O 166.49700000 102.18600000 151.16700000
O 166.49700000 102.18600000 154.27800000
O 166.49700000 106.66800000 148.05600000
O 166.49700000 106.66800000 151.16700000
Ru 133.75200000 99.07200000 144.94500000
Ru 133.75200000 99.07200000 148.05600000
Ru 133.75200000 99.07200000 151.16700000
Ru 133.75200000 99.07200000 154.27800000
Ru 133.75200000 103.55700000 144.94500000
Ru 133.75200000 103.55700000 148.05600000
Ru 133.75200000 103.55700000 151.16700000
Ru 133.75200000 103.55700000 154.27800000
Ru 135.99300000 92.34900000 146.49900000
Ru 135.99300000 92.34900000 149.61000000
Ru 135.99300000 92.34900000 152.72100000
Ru 135.99300000 96.83100000 143.38800000
Ru 135.99300000 96.83100000 146.49900000
Ru 135.99300000 96.83100000 149.61000000
Ru 135.99300000 96.83100000 152.72100000
Ru 135.99300000 96.83100000 155.83500000
Ru 135.99300000 101.31600000 140.27700000
Ru 135.99300000 101.31600000 143.38800000
Ru 135.99300000 101.31600000 146.49900000
Ru 135.99300000 101.31600000 149.61000000
Ru 135.99300000 101.31600000 152.72100000
Ru 135.99300000 101.31600000 155.83500000
Ru 135.99300000 101.31600000 158.94600000
Ru 135.99300000 105.79800000 143.38800000
Ru 135.99300000 105.79800000 146.49900000
Ru 135.99300000 105.79800000 149.61000000
Ru 135.99300000 105.79800000 152.72100000
Ru 135.99300000 105.79800000 155.83500000
Ru 135.99300000 105.79800000 158.94600000
Ru 135.99300000 110.28000000 146.49900000
Ru 135.99300000 110.28000000 149.61000000
Ru 135.99300000 110.28000000 152.72100000
Ru 135.99300000 110.28000000 155.83500000
Ru 138.23400000 90.10800000 148.05600000
Ru 138.23400000 90.10800000 151.16700000
Ru 138.23400000 90.10800000 154.27800000
Ru 138.23400000 94.59000000 141.83400000
Ru 138.23400000 94.59000000 144.94500000
Ru 138.23400000 94.59000000 148.05600000
Ru 138.23400000 94.59000000 151.16700000
Ru 138.23400000 94.59000000 154.27800000
Ru 138.23400000 94.59000000 157.38900000
Ru 138.23400000 99.07200000 138.72300000
Ru 138.23400000 99.07200000 141.83400000
Ru 138.23400000 99.07200000 144.94500000
Ru 138.23400000 99.07200000 148.05600000
Ru 138.23400000 99.07200000 151.16700000
Ru 138.23400000 99.07200000 154.27800000
Ru 138.23400000 99.07200000 157.38900000
Ru 138.23400000 99.07200000 160.50000000
Ru 138.23400000 103.55700000 138.72300000
Ru 138.23400000 103.55700000 141.83400000
Ru 138.23400000 103.55700000 144.94500000
Ru 138.23400000 103.55700000 148.05600000
Ru 138.23400000 103.55700000 151.16700000
Ru 138.23400000 103.55700000 154.27800000
Ru 138.23400000 103.55700000 157.38900000
Ru 138.23400000 103.55700000 160.50000000
Ru 138.23400000 108.03900000 141.83400000
Ru 138.23400000 108.03900000 144.94500000
Ru 138.23400000 108.03900000 148.05600000
Ru 138.23400000 108.03900000 151.16700000
Ru 138.23400000 108.03900000 154.27800000
Ru 138.23400000 108.03900000 157.38900000
Ru 138.23400000 108.03900000 160.50000000
Ru 138.23400000 112.52100000 144.94500000
Ru 138.23400000 112.52100000 148.05600000
Ru 138.23400000 112.52100000 151.16700000
Ru 138.23400000 112.52100000 154.27800000
Ru 140.47500000 87.86700000 146.49900000
Ru 140.47500000 87.86700000 149.61000000
Ru 140.47500000 87.86700000 152.72100000
Ru 140.47500000 92.34900000 140.27700000
Ru 140.47500000 92.34900000 143.38800000
Ru 140.47500000 92.34900000 146.49900000
Ru 140.47500000 92.34900000 149.61000000
Ru 140.47500000 92.34900000 152.72100000
Ru 140.47500000 92.34900000 155.83500000
Ru 140.47500000 92.34900000 158.94600000
Ru 140.47500000 96.83100000 137.16600000
Ru 140.47500000 96.83100000 140.27700000
Ru 140.47500000 96.83100000 143.38800000
Ru 140.47500000 96.83100000 146.49900000
Ru 140.47500000 96.83100000 149.61000000
Ru 140.47500000 96.83100000 152.72100000
Ru 140.47500000 96.83100000 155.83500000
Ru 140.47500000 96.83100000 158.94600000
Ru 140.47500000 96.83100000 162.05700000
Ru 140.47500000 101.31600000 137.16600000
Ru 140.47500000 101.31600000 140.27700000
Ru 140.47500000 101.31600000 143.38800000
Ru 140.47500000 101.31600000 146.49900000
Ru 140.47500000 101.31600000 149.61000000
Ru 140.47500000 101.31600000 152.72100000
Ru 140.47500000 101.31600000 155.83500000
Ru 140.47500000 101.31600000 158.94600000
Ru 140.47500000 101.31600000 162.05700000
Ru 140.47500000 105.79800000 137.16600000
Ru 140.47500000 105.79800000 140.27700000
Ru 140.47500000 105.79800000 143.38800000
Ru 140.47500000 105.79800000 146.49900000
Ru 140.47500000 105.79800000 149.61000000
Ru 140.47500000 105.79800000 152.72100000
Ru 140.47500000 105.79800000 155.83500000
Ru 140.47500000 105.79800000 158.94600000
Ru 140.47500000 105.79800000 162.05700000
Ru 140.47500000 110.28000000 140.27700000
Ru 140.47500000 110.28000000 143.38800000
Ru 140.47500000 110.28000000 146.49900000
Ru 140.47500000 110.28000000 149.61000000
Ru 140.47500000 110.28000000 152.72100000
Ru 140.47500000 110.28000000 155.83500000
Ru 140.47500000 110.28000000 158.94600000
Ru 140.47500000 114.76200000 143.38800000
Ru 140.47500000 114.76200000 146.49900000
Ru 140.47500000 114.76200000 149.61000000
Ru 140.47500000 114.76200000 152.72100000
Ru 140.47500000 114.76200000 155.83500000
Ru 142.71600000 90.10800000 141.83400000
Ru 142.71600000 90.10800000 144.94500000
Ru 142.71600000 90.10800000 148.05600000
Ru 142.71600000 90.10800000 151.16700000
Ru 142.71600000 90.10800000 154.27800000
Ru 142.71600000 94.59000000 138.72300000
Ru 142.71600000 94.59000000 141.83400000
Ru 142.71600000 99.07200000 135.60900000
Ru 142.71600000 99.07200000 138.72300000
Ru 142.71600000 99.07200000 141.83400000
Ru 142.71600000 103.55700000 135.60900000
Ru 142.71600000 103.55700000 138.72300000
Ru 142.71600000 103.55700000 141.83400000
Ru 142.71600000 90.10800000 157.38900000
Ru 142.71600000 94.59000000 144.94500000
Ru 142.71600000 94.59000000 148.05600000
Ru 142.71600000 94.59000000 151.16700000
Ru 142.71600000 94.59000000 154.27800000
Ru 142.71600000 99.07200000 144.94500000
Ru 142.71600000 99.07200000 148.05600000
Ru 142.71600000 99.07200000 151.16700000
Ru 142.71600000 99.07200000 154.27800000
Ru 142.71600000 103.55700000 144.94500000
Ru 142.71600000 103.55700000 148.05600000
Ru 142.71600000 103.55700000 151.16700000
Ru 142.71600000 103.55700000 154.27800000
Ru 142.71600000 108.03900000 135.60900000
Ru 142.71600000 108.03900000 138.72300000
Ru 142.71600000 108.03900000 141.83400000
Ru 142.71600000 112.52100000 138.72300000
Ru 142.71600000 112.52100000 141.83400000
Ru 142.71600000 94.59000000 157.38900000
Ru 142.71600000 94.59000000 160.50000000
Ru 142.71600000 94.59000000 163.61100000
Ru 142.71600000 99.07200000 157.38900000
Ru 142.71600000 99.07200000 160.50000000
Ru 142.71600000 99.07200000 163.61100000
Ru 142.71600000 103.55700000 157.38900000
Ru 142.71600000 103.55700000 160.50000000
Ru 142.71600000 103.55700000 163.61100000
Ru 142.71600000 108.03900000 144.94500000
Ru 142.71600000 108.03900000 148.05600000
Ru 142.71600000 108.03900000 151.16700000
Ru 142.71600000 108.03900000 154.27800000
Ru 142.71600000 112.52100000 144.94500000
Ru 142.71600000 112.52100000 148.05600000
Ru 142.71600000 112.52100000 151.16700000
Ru 142.71600000 112.52100000 154.27800000
Ru 142.71600000 117.00300000 148.05600000
Ru 142.71600000 117.00300000 151.16700000
Ru 142.71600000 117.00300000 154.27800000
Ru 142.71600000 108.03900000 157.38900000
Ru 142.71600000 108.03900000 160.50000000
Ru 142.71600000 108.03900000 163.61100000
Ru 142.71600000 112.52100000 157.38900000
Ru 142.71600000 112.52100000 160.50000000
Ru 144.95700000 87.86700000 143.38800000
Ru 144.95700000 87.86700000 146.49900000
Ru 144.95700000 87.86700000 149.61000000
Ru 144.95700000 87.86700000 152.72100000
Ru 144.95700000 87.86700000 155.83500000
Ru 144.95700000 92.34900000 137.16600000
Ru 144.95700000 92.34900000 140.27700000
Ru 144.95700000 96.83100000 137.16600000
Ru 144.95700000 96.83100000 140.27700000
Ru 144.95700000 101.31600000 134.05500000
Ru 144.95700000 101.31600000 137.16600000
Ru 144.95700000 101.31600000 140.27700000
Ru 144.95700000 92.34900000 143.38800000
Ru 144.95700000 92.34900000 146.49900000
Ru 144.95700000 92.34900000 149.61000000
Ru 144.95700000 92.34900000 152.72100000
Ru 144.95700000 92.34900000 155.83500000
Ru 144.95700000 96.83100000 143.38800000
Ru 144.95700000 96.83100000 146.49900000
Ru 144.95700000 96.83100000 149.61000000
Ru 144.95700000 96.83100000 152.72100000
Ru 144.95700000 96.83100000 155.83500000
Ru 144.95700000 101.31600000 143.38800000
Ru 144.95700000 101.31600000 146.49900000
Ru 144.95700000 101.31600000 149.61000000
Ru 144.95700000 101.31600000 152.72100000
Ru 144.95700000 101.31600000 155.83500000
Ru 144.95700000 105.79800000 134.05500000
Ru 144.95700000 105.79800000 137.16600000
Ru 144.95700000 105.79800000 140.27700000
Ru 144.95700000 110.28000000 137.16600000
Ru 144.95700000 110.28000000 140.27700000
Ru 144.95700000 114.76200000 140.27700000
Ru 144.95700000 92.34900000 158.94600000
Ru 144.95700000 92.34900000 162.05700000
Ru 144.95700000 96.83100000 158.94600000
Ru 144.95700000 96.83100000 162.05700000
Ru 144.95700000 96.83100000 165.16800000
Ru 144.95700000 101.31600000 158.94600000
Ru 144.95700000 101.31600000 162.05700000
Ru 144.95700000 101.31600000 165.16800000
Ru 144.95700000 105.79800000 143.38800000
Ru 144.95700000 105.79800000 146.49900000
Ru 144.95700000 105.79800000 149.61000000
Ru 144.95700000 105.79800000 152.72100000
Ru 144.95700000 105.79800000 155.83500000
Ru 144.95700000 110.28000000 143.38800000
Ru 144.95700000 110.28000000 146.49900000
Ru 144.95700000 110.28000000 149.61000000
Ru 144.95700000 110.28000000 152.72100000
Ru 144.95700000 110.28000000 155.83500000
Ru 144.95700000 114.76200000 143.38800000
Ru 144.95700000 114.76200000 146.49900000
Ru 144.95700000 114.76200000 149.61000000
Ru 144.95700000 114.76200000 152.72100000
Ru 144.95700000 114.76200000 155.83500000
Ru 144.95700000 105.79800000 158.94600000
Ru 144.95700000 105.79800000 162.05700000
Ru 144.95700000 105.79800000 165.16800000
Ru 144.95700000 110.28000000 158.94600000
Ru 144.95700000 110.28000000 162.05700000
Ru 144.95700000 114.76200000 158.94600000
Ru 147.19800000 85.62600000 144.94500000
Ru 147.19800000 90.10800000 138.72300000
Ru 147.19800000 94.59000000 135.60900000
Ru 147.19800000 94.59000000 138.72300000
Ru 147.19800000 85.62600000 148.05600000
Ru 147.19800000 85.62600000 151.16700000
Ru 147.19800000 90.10800000 141.83400000
Ru 147.19800000 90.10800000 144.94500000
Ru 147.19800000 94.59000000 141.83400000
Ru 147.19800000 94.59000000 144.94500000
Ru 147.19800000 99.07200000 135.60900000
Ru 147.19800000 99.07200000 138.72300000
Ru 147.19800000 85.62600000 154.27800000
Ru 147.19800000 90.10800000 148.05600000
Ru 147.19800000 90.10800000 151.16700000
Ru 147.19800000 94.59000000 148.05600000
Ru 147.19800000 94.59000000 151.16700000
Ru 147.19800000 99.07200000 141.83400000
Ru 147.19800000 99.07200000 144.94500000
Ru 147.19800000 103.55700000 135.60900000
Ru 147.19800000 103.55700000 138.72300000
Ru 147.19800000 108.03900000 135.60900000
Ru 147.19800000 108.03900000 138.72300000
Ru 147.19800000 90.10800000 154.27800000
Ru 147.19800000 90.10800000 157.38900000
Ru 147.19800000 90.10800000 160.50000000
Ru 147.19800000 94.59000000 154.27800000
Ru 147.19800000 94.59000000 157.38900000
Ru 147.19800000 94.59000000 160.50000000
Ru 147.19800000 99.07200000 148.05600000
Ru 147.19800000 99.07200000 151.16700000
Ru 147.19800000 103.55700000 141.83400000
Ru 147.19800000 103.55700000 144.94500000
Ru 147.19800000 108.03900000 141.83400000
Ru 147.19800000 108.03900000 144.94500000
Ru 147.19800000 112.52100000 138.72300000
Ru 147.19800000 94.59000000 163.61100000
Ru 147.19800000 99.07200000 154.27800000
Ru 147.19800000 99.07200000 157.38900000
Ru 147.19800000 99.07200000 160.50000000
Ru 147.19800000 103.55700000 148.05600000
Ru 147.19800000 103.55700000 151.16700000
Ru 147.19800000 108.03900000 148.05600000
Ru 147.19800000 108.03900000 151.16700000
Ru 147.19800000 112.52100000 141.83400000
Ru 147.19800000 112.52100000 144.94500000
Ru 147.19800000 99.07200000 163.61100000
Ru 147.19800000 99.07200000 166.72200000
Ru 147.19800000 103.55700000 154.27800000
Ru 147.19800000 103.55700000 157.38900000
Ru 147.19800000 103.55700000 160.50000000
Ru 147.19800000 108.03900000 154.27800000
Ru 147.19800000 108.03900000 157.38900000
Ru 147.19800000 108.03900000 160.50000000
Ru 147.19800000 112.52100000 148.05600000
Ru 147.19800000 112.52100000 151.16700000
Ru 147.19800000 117.00300000 144.94500000
Ru 147.19800000 103.55700000 163.61100000
Ru 147.19800000 103.55700000 166.72200000
Ru 147.19800000 108.03900000 163.61100000
Ru 147.19800000 112.52100000 154.27800000
Ru 147.19800000 112.52100000 157.38900000
Ru 147.19800000 112.52100000 160.50000000
Ru 147.19800000 117.00300000 148.05600000
Ru 147.19800000 117.00300000 151.16700000
Ru 147.19800000 117.00300000 154.27800000
Ru 147.19800000 117.00300000 157.38900000
Ru 149.43900000 87.86700000 140.27700000
Ru 149.43900000 87.86700000 143.38800000
Ru 149.43900000 92.34900000 137.16600000
Ru 149.43900000 96.83100000 134.05500000
Ru 149.43900000 87.86700000 146.49900000
Ru 149.43900000 92.34900000 140.27700000
Ru 149.43900000 96.83100000 137.16600000
Ru 149.43900000 92.34900000 143.38800000
Ru 149.43900000 101.31600000 134.05500000
Ru 149.43900000 87.86700000 149.61000000
Ru 149.43900000 96.83100000 140.27700000
Ru 149.43900000 92.34900000 146.49900000
Ru 149.43900000 96.83100000 143.38800000
Ru 149.43900000 101.31600000 137.16600000
Ru 149.43900000 105.79800000 134.05500000
Ru 149.43900000 87.86700000 152.72100000
Ru 149.43900000 87.86700000 155.83500000
Ru 149.43900000 92.34900000 149.61000000
Ru 149.43900000 96.83100000 146.49900000
Ru 149.43900000 101.31600000 140.27700000
Ru 149.43900000 105.79800000 137.16600000
Ru 149.43900000 101.31600000 143.38800000
Ru 149.43900000 87.86700000 158.94600000
Ru 149.43900000 92.34900000 152.72100000
Ru 149.43900000 96.83100000 149.61000000
Ru 149.43900000 105.79800000 140.27700000
Ru 149.43900000 92.34900000 155.83500000
Ru 149.43900000 101.31600000 146.49900000
Ru 149.43900000 105.79800000 143.38800000
Ru 149.43900000 110.28000000 137.16600000
Ru 149.43900000 96.83100000 152.72100000
Ru 149.43900000 92.34900000 158.94600000
Ru 149.43900000 96.83100000 155.83500000
Ru 149.43900000 101.31600000 149.61000000
Ru 149.43900000 105.79800000 146.49900000
Ru 149.43900000 110.28000000 140.27700000
Ru 149.43900000 110.28000000 143.38800000
Ru 149.43900000 92.34900000 162.05700000
Ru 149.43900000 96.83100000 158.94600000
Ru 149.43900000 101.31600000 152.72100000
Ru 149.43900000 105.79800000 149.61000000
Ru 149.43900000 114.76200000 140.27700000
Ru 149.43900000 101.31600000 155.83500000
Ru 149.43900000 110.28000000 146.49900000
Ru 149.43900000 114.76200000 143.38800000
Ru 149.43900000 96.83100000 162.05700000
Ru 149.43900000 105.79800000 152.72100000
Ru 149.43900000 96.83100000 165.16800000
Ru 149.43900000 101.31600000 158.94600000
Ru 149.43900000 105.79800000 155.83500000
Ru 149.43900000 110.28000000 149.61000000
Ru 149.43900000 114.76200000 146.49900000
Ru 149.43900000 101.31600000 162.05700000
Ru 149.43900000 105.79800000 158.94600000
Ru 149.43900000 110.28000000 152.72100000
Ru 149.43900000 114.76200000 149.61000000
Ru 149.43900000 101.31600000 165.16800000
Ru 149.43900000 110.28000000 155.83500000
Ru 149.43900000 105.79800000 162.05700000
Ru 149.43900000 114.76200000 152.72100000
Ru 149.43900000 105.79800000 165.16800000
Ru 149.43900000 110.28000000 158.94600000
Ru 149.43900000 114.76200000 155.83500000
Ru 149.43900000 110.28000000 162.05700000
Ru 149.43900000 114.76200000 158.94600000
Ru 149.43900000 110.28000000 165.16800000
Ru 151.68000000 90.10800000 138.72300000
Ru 151.68000000 94.59000000 135.60900000
Ru 151.68000000 85.62600000 144.94500000
Ru 151.68000000 85.62600000 148.05600000
Ru 151.68000000 90.10800000 141.83400000
Ru 151.68000000 94.59000000 138.72300000
Ru 151.68000000 99.07200000 135.60900000
Ru 151.68000000 85.62600000 151.16700000
Ru 151.68000000 90.10800000 144.94500000
Ru 151.68000000 90.10800000 148.05600000
Ru 151.68000000 94.59000000 141.83400000
Ru 151.68000000 99.07200000 138.72300000
Ru 151.68000000 103.55700000 135.60900000
Ru 151.68000000 85.62600000 154.27800000
Ru 151.68000000 90.10800000 151.16700000
Ru 151.68000000 94.59000000 144.94500000
Ru 151.68000000 94.59000000 148.05600000
Ru 151.68000000 99.07200000 141.83400000
Ru 151.68000000 103.55700000 138.72300000
Ru 151.68000000 90.10800000 154.27800000
Ru 151.68000000 94.59000000 151.16700000
Ru 151.68000000 99.07200000 144.94500000
Ru 151.68000000 99.07200000 148.05600000
Ru 151.68000000 103.55700000 141.83400000
Ru 151.68000000 108.03900000 135.60900000
Ru 151.68000000 90.10800000 157.38900000
Ru 151.68000000 94.59000000 154.27800000
Ru 151.68000000 99.07200000 151.16700000
Ru 151.68000000 103.55700000 144.94500000
Ru 151.68000000 103.55700000 148.05600000
Ru 151.68000000 108.03900000 138.72300000
Ru 151.68000000 90.10800000 160.50000000
Ru 151.68000000 94.59000000 157.38900000
Ru 151.68000000 99.07200000 154.27800000
Ru 151.68000000 103.55700000 151.16700000
Ru 151.68000000 108.03900000 141.83400000
Ru 151.68000000 112.52100000 138.72300000
Ru 151.68000000 94.59000000 160.50000000
Ru 151.68000000 99.07200000 157.38900000
Ru 151.68000000 103.55700000 154.27800000
Ru 151.68000000 108.03900000 144.94500000
Ru 151.68000000 108.03900000 148.05600000
Ru 151.68000000 112.52100000 141.83400000
Ru 151.68000000 94.59000000 163.61100000
Ru 151.68000000 99.07200000 160.50000000
Ru 151.68000000 103.55700000 157.38900000
Ru 151.68000000 108.03900000 151.16700000
Ru 151.68000000 112.52100000 144.94500000
Ru 151.68000000 112.52100000 148.05600000
Ru 151.68000000 117.00300000 141.83400000
Ru 151.68000000 99.07200000 163.61100000
Ru 151.68000000 103.55700000 160.50000000
Ru 151.68000000 108.03900000 154.27800000
Ru 151.68000000 112.52100000 151.16700000
Ru 151.68000000 117.00300000 144.94500000
Ru 151.68000000 117.00300000 148.05600000
Ru 151.68000000 99.07200000 166.72200000
Ru 151.68000000 103.55700000 163.61100000
Ru 151.68000000 108.03900000 157.38900000
Ru 151.68000000 112.52100000 154.27800000
Ru 151.68000000 117.00300000 151.16700000
Ru 151.68000000 103.55700000 166.72200000
Ru 151.68000000 108.03900000 160.50000000
Ru 151.68000000 112.52100000 157.38900000
Ru 151.68000000 117.00300000 154.27800000
Ru 151.68000000 108.03900000 163.61100000
Ru 151.68000000 112.52100000 160.50000000
Ru 151.68000000 117.00300000 157.38900000
Ru 153.92100000 92.34900000 137.16600000
Ru 153.92100000 87.86700000 143.38800000
Ru 153.92100000 92.34900000 140.27700000
Ru 153.92100000 92.34900000 143.38800000
Ru 153.92100000 96.83100000 134.05500000
Ru 153.92100000 96.83100000 137.16600000
Ru 153.92100000 101.31600000 134.05500000
Ru 153.92100000 101.31600000 137.16600000
Ru 153.92100000 87.86700000 146.49900000
Ru 153.92100000 87.86700000 149.61000000
Ru 153.92100000 87.86700000 152.72100000
Ru 153.92100000 92.34900000 146.49900000
Ru 153.92100000 92.34900000 149.61000000
Ru 153.92100000 92.34900000 152.72100000
Ru 153.92100000 96.83100000 140.27700000
Ru 153.92100000 96.83100000 143.38800000
Ru 153.92100000 101.31600000 140.27700000
Ru 153.92100000 101.31600000 143.38800000
Ru 153.92100000 105.79800000 134.05500000
Ru 153.92100000 105.79800000 137.16600000
Ru 153.92100000 87.86700000 155.83500000
Ru 153.92100000 87.86700000 158.94600000
Ru 153.92100000 92.34900000 155.83500000
Ru 153.92100000 92.34900000 158.94600000
Ru 153.92100000 96.83100000 146.49900000
Ru 153.92100000 96.83100000 149.61000000
Ru 153.92100000 96.83100000 152.72100000
Ru 153.92100000 101.31600000 146.49900000
Ru 153.92100000 101.31600000 149.61000000
Ru 153.92100000 101.31600000 152.72100000
Ru 153.92100000 105.79800000 140.27700000
Ru 153.92100000 105.79800000 143.38800000
Ru 153.92100000 110.28000000 137.16600000
Ru 153.92100000 92.34900000 162.05700000
Ru 153.92100000 96.83100000 155.83500000
Ru 153.92100000 96.83100000 158.94600000
Ru 153.92100000 101.31600000 155.83500000
Ru 153.92100000 101.31600000 158.94600000
Ru 153.92100000 105.79800000 146.49900000
Ru 153.92100000 105.79800000 149.61000000
Ru 153.92100000 105.79800000 152.72100000
Ru 153.92100000 110.28000000 140.27700000
Ru 153.92100000 110.28000000 143.38800000
Ru 153.92100000 114.76200000 140.27700000
Ru 153.92100000 114.76200000 143.38800000
Ru 153.92100000 96.83100000 162.05700000
Ru 153.92100000 96.83100000 165.16800000
Ru 153.92100000 101.31600000 162.05700000
Ru 153.92100000 101.31600000 165.16800000
Ru 153.92100000 105.79800000 155.83500000
Ru 153.92100000 105.79800000 158.94600000
Ru 153.92100000 110.28000000 146.49900000
Ru 153.92100000 110.28000000 149.61000000
Ru 153.92100000 110.28000000 152.72100000
Ru 153.92100000 114.76200000 146.49900000
Ru 153.92100000 114.76200000 149.61000000
Ru 153.92100000 114.76200000 152.72100000
Ru 153.92100000 105.79800000 162.05700000
Ru 153.92100000 105.79800000 165.16800000
Ru 153.92100000 110.28000000 155.83500000
Ru 153.92100000 110.28000000 158.94600000
Ru 153.92100000 114.76200000 155.83500000
Ru 153.92100000 114.76200000 158.94600000
Ru 153.92100000 110.28000000 162.05700000
Ru 156.16200000 90.10800000 141.83400000
Ru 156.16200000 90.10800000 144.94500000
Ru 156.16200000 90.10800000 148.05600000
Ru 156.16200000 90.10800000 151.16700000
Ru 156.16200000 90.10800000 154.27800000
Ru 156.16200000 94.59000000 135.60900000
Ru 156.16200000 94.59000000 138.72300000
Ru 156.16200000 94.59000000 141.83400000
Ru 156.16200000 99.07200000 135.60900000
Ru 156.16200000 99.07200000 138.72300000
Ru 156.16200000 99.07200000 141.83400000
Ru 156.16200000 103.55700000 135.60900000
Ru 156.16200000 103.55700000 138.72300000
Ru 156.16200000 103.55700000 141.83400000
Ru 156.16200000 90.10800000 157.38900000
Ru 156.16200000 90.10800000 160.50000000
Ru 156.16200000 94.59000000 144.94500000
Ru 156.16200000 94.59000000 148.05600000
Ru 156.16200000 94.59000000 151.16700000
Ru 156.16200000 94.59000000 154.27800000
Ru 156.16200000 99.07200000 144.94500000
Ru 156.16200000 99.07200000 148.05600000
Ru 156.16200000 99.07200000 151.16700000
Ru 156.16200000 99.07200000 154.27800000
Ru 156.16200000 103.55700000 144.94500000
Ru 156.16200000 103.55700000 148.05600000
Ru 156.16200000 103.55700000 151.16700000
Ru 156.16200000 103.55700000 154.27800000
Ru 156.16200000 108.03900000 135.60900000
Ru 156.16200000 108.03900000 138.72300000
Ru 156.16200000 108.03900000 141.83400000
Ru 156.16200000 112.52100000 138.72300000
Ru 156.16200000 112.52100000 141.83400000
Ru 156.16200000 94.59000000 157.38900000
Ru 156.16200000 94.59000000 160.50000000
Ru 156.16200000 94.59000000 163.61100000
Ru 156.16200000 99.07200000 157.38900000
Ru 156.16200000 99.07200000 160.50000000
Ru 156.16200000 99.07200000 163.61100000
Ru 156.16200000 103.55700000 157.38900000
Ru 156.16200000 103.55700000 160.50000000
Ru 156.16200000 103.55700000 163.61100000
Ru 156.16200000 108.03900000 144.94500000
Ru 156.16200000 108.03900000 148.05600000
Ru 156.16200000 108.03900000 151.16700000
Ru 156.16200000 108.03900000 154.27800000
Ru 156.16200000 112.52100000 144.94500000
Ru 156.16200000 112.52100000 148.05600000
Ru 156.16200000 112.52100000 151.16700000
Ru 156.16200000 112.52100000 154.27800000
Ru 156.16200000 117.00300000 144.94500000
Ru 156.16200000 117.00300000 148.05600000
Ru 156.16200000 117.00300000 151.16700000
Ru 156.16200000 117.00300000 154.27800000
Ru 156.16200000 108.03900000 157.38900000
Ru 156.16200000 108.03900000 160.50000000
Ru 156.16200000 108.03900000 163.61100000
Ru 156.16200000 112.52100000 157.38900000
Ru 156.16200000 112.52100000 160.50000000
Ru 158.40600000 87.86700000 146.49900000
Ru 158.40600000 87.86700000 149.61000000
Ru 158.40600000 87.86700000 152.72100000
Ru 158.40600000 87.86700000 155.83500000
Ru 158.40600000 92.34900000 140.27700000
Ru 158.40600000 92.34900000 143.38800000
Ru 158.40600000 92.34900000 146.49900000
Ru 158.40600000 92.34900000 149.61000000
Ru 158.40600000 92.34900000 152.72100000
Ru 158.40600000 92.34900000 155.83500000
Ru 158.40600000 92.34900000 158.94600000
Ru 158.40600000 96.83100000 137.16600000
Ru 158.40600000 96.83100000 140.27700000
Ru 158.40600000 96.83100000 143.38800000
Ru 158.40600000 96.83100000 146.49900000
Ru 158.40600000 96.83100000 149.61000000
Ru 158.40600000 96.83100000 152.72100000
Ru 158.40600000 96.83100000 155.83500000
Ru 158.40600000 96.83100000 158.94600000
Ru 158.40600000 96.83100000 162.05700000
Ru 158.40600000 101.31600000 137.16600000
Ru 158.40600000 101.31600000 140.27700000
Ru 158.40600000 101.31600000 143.38800000
Ru 158.40600000 101.31600000 146.49900000
Ru 158.40600000 101.31600000 149.61000000
Ru 158.40600000 101.31600000 152.72100000
Ru 158.40600000 101.31600000 155.83500000
Ru 158.40600000 101.31600000 158.94600000
Ru 158.40600000 101.31600000 162.05700000
Ru 158.40600000 105.79800000 137.16600000
Ru 158.40600000 105.79800000 140.27700000
Ru 158.40600000 105.79800000 143.38800000
Ru 158.40600000 105.79800000 146.49900000
Ru 158.40600000 105.79800000 149.61000000
Ru 158.40600000 105.79800000 152.72100000
Ru 158.40600000 105.79800000 155.83500000
Ru 158.40600000 105.79800000 158.94600000
Ru 158.40600000 105.79800000 162.05700000
Ru 158.40600000 110.28000000 140.27700000
Ru 158.40600000 110.28000000 143.38800000
Ru 158.40600000 110.28000000 146.49900000
Ru 158.40600000 110.28000000 149.61000000
Ru 158.40600000 110.28000000 152.72100000
Ru 158.40600000 110.28000000 155.83500000
Ru 158.40600000 110.28000000 158.94600000
Ru 158.40600000 110.28000000 162.05700000
Ru 158.40600000 114.76200000 143.38800000
Ru 158.40600000 114.76200000 146.49900000
Ru 158.40600000 114.76200000 149.61000000
Ru 158.40600000 114.76200000 152.72100000
Ru 158.40600000 114.76200000 155.83500000
Ru 160.64700000 90.10800000 144.94500000
Ru 160.64700000 90.10800000 148.05600000
Ru 160.64700000 90.10800000 151.16700000
Ru 160.64700000 90.10800000 154.27800000
Ru 160.64700000 94.59000000 138.72300000
Ru 160.64700000 94.59000000 141.83400000
Ru 160.64700000 94.59000000 144.94500000
Ru 160.64700000 94.59000000 148.05600000
Ru 160.64700000 94.59000000 151.16700000
Ru 160.64700000 94.59000000 154.27800000
Ru 160.64700000 94.59000000 157.38900000
Ru 160.64700000 94.59000000 160.50000000
Ru 160.64700000 99.07200000 138.72300000
Ru 160.64700000 99.07200000 141.83400000
Ru 160.64700000 99.07200000 144.94500000
Ru 160.64700000 99.07200000 148.05600000
Ru 160.64700000 99.07200000 151.16700000
Ru 160.64700000 99.07200000 154.27800000
Ru 160.64700000 99.07200000 157.38900000
Ru 160.64700000 99.07200000 160.50000000
Ru 160.64700000 103.55700000 138.72300000
Ru 160.64700000 103.55700000 141.83400000
Ru 160.64700000 103.55700000 144.94500000
Ru 160.64700000 103.55700000 148.05600000
Ru 160.64700000 103.55700000 151.16700000
Ru 160.64700000 103.55700000 154.27800000
Ru 160.64700000 103.55700000 157.38900000
Ru 160.64700000 103.55700000 160.50000000
Ru 160.64700000 108.03900000 138.72300000
Ru 160.64700000 108.03900000 141.83400000
Ru 160.64700000 108.03900000 144.94500000
Ru 160.64700000 108.03900000 148.05600000
Ru 160.64700000 108.03900000 151.16700000
Ru 160.64700000 108.03900000 154.27800000
Ru 160.64700000 108.03900000 157.38900000
Ru 160.64700000 108.03900000 160.50000000
Ru 160.64700000 112.52100000 141.83400000
Ru 160.64700000 112.52100000 144.94500000
Ru 160.64700000 112.52100000 148.05600000
Ru 160.64700000 112.52100000 151.16700000
Ru 160.64700000 112.52100000 154.27800000
Ru 160.64700000 112.52100000 157.38900000
Ru 162.88800000 92.34900000 143.38800000
Ru 162.88800000 92.34900000 146.49900000
Ru 162.88800000 92.34900000 149.61000000
Ru 162.88800000 92.34900000 152.72100000
Ru 162.88800000 92.34900000 155.83500000
Ru 162.88800000 96.83100000 140.27700000
Ru 162.88800000 96.83100000 143.38800000
Ru 162.88800000 96.83100000 146.49900000
Ru 162.88800000 96.83100000 149.61000000
Ru 162.88800000 96.83100000 152.72100000
Ru 162.88800000 96.83100000 155.83500000
Ru 162.88800000 96.83100000 158.94600000
Ru 162.88800000 101.31600000 140.27700000
Ru 162.88800000 101.31600000 143.38800000
Ru 162.88800000 101.31600000 146.49900000
Ru 162.88800000 101.31600000 149.61000000
Ru 162.88800000 101.31600000 152.72100000
Ru 162.88800000 101.31600000 155.83500000
Ru 162.88800000 101.31600000 158.94600000
Ru 162.88800000 105.79800000 140.27700000
Ru 162.88800000 105.79800000 143.38800000
Ru 162.88800000 105.79800000 146.49900000
Ru 162.88800000 105.79800000 149.61000000
Ru 162.88800000 105.79800000 152.72100000
Ru 162.88800000 105.79800000 155.83500000
Ru 162.88800000 105.79800000 158.94600000
Ru 162.88800000 110.28000000 143.38800000
Ru 162.88800000 110.28000000 146.49900000
Ru 162.88800000 110.28000000 149.61000000
Ru 162.88800000 110.28000000 152.72100000
Ru 162.88800000 110.28000000 155.83500000
Ru 165.12900000 94.59000000 148.05600000
Ru 165.12900000 94.59000000 151.16700000
Ru 165.12900000 94.59000000 154.27800000
Ru 165.12900000 99.07200000 144.94500000
Ru 165.12900000 99.07200000 148.05600000
Ru 165.12900000 99.07200000 151.16700000
Ru 165.12900000 99.07200000 154.27800000
Ru 165.12900000 99.07200000 157.38900000
Ru 165.12900000 103.55700000 141.83400000
Ru 165.12900000 103.55700000 144.94500000
Ru 165.12900000 103.55700000 148.05600000
Ru 165.12900000 103.55700000 151.16700000
Ru 165.12900000 103.55700000 154.27800000
Ru 165.12900000 103.55700000 157.38900000
Ru 165.12900000 108.03900000 144.94500000
Ru 165.12900000 108.03900000 148.05600000
Ru 165.12900000 108.03900000 151.16700000
Ru 165.12900000 108.03900000 154.27800000
